H2O                                     
   1.00000000000000     
     5.2298898931731976   -2.9970123878939998    0.0381557406371249
     5.2298898931731976    2.9970123878939994    0.0381557406371249
    -0.1687622246066751    0.0000000000000000    6.3181465798192260
   H    O 
    18     9
Direct
  0.7018886031396457  0.4511542708793947  0.4897215530171966
  0.5488457291206763  0.2981113968602263  0.5102784469825050
  0.2145718179300319  0.0759300620070119  0.3288561136317003
  0.9240699379934143  0.7854281820695276  0.6711438863684986
  0.9510611419059862  0.1025878935748051  0.3041165479521954
  0.8974121064251949  0.0489388580939925  0.6958834520477052
  0.7370330995080960  0.8075669153822770  0.3318275734837568
  0.1924330846179504  0.2629669004920745  0.6681724265158382
  0.0011936308624219  0.5725628230429650  0.3626962055282037
  0.4274371769571344  0.9988063691372796  0.6373037944718959
  0.7458510968961398  0.9833153123284847  0.9928266655025265
  0.0166846876713164  0.2541489031044641  0.0071733344970045
  0.5156157880716880  0.1990536620068957  0.1271008502272492
  0.8009463379927064  0.4843842119289088  0.8728991497725517
  0.1442505743153303  0.5189939640000488  0.0500724813796024
  0.4810060360000576  0.8557494256841723  0.9499275186204330
  0.2271931735991305  0.6925688574358122  0.1769479788349209
  0.3074311425642873  0.7728068264011679  0.8230520211655836
  0.7166253350351668  0.2833746649648332  0.5000000000000000
  0.1132726041270858  0.0370916627187864  0.2283984615888572
  0.9629083372811993  0.8867273958729923  0.7716015384107449
  0.8344426721963009  0.6681307889651568  0.4319293646520806
  0.3318692110343530  0.1655573278039905  0.5680706353483174
  0.6208012410123347  0.0137902320294501  0.1028289183628820
  0.9862097679698536  0.3791987589875659  0.8971710816370683
  0.2499063481000133  0.5204706823288359  0.1683298056448596
  0.4795293176713701  0.7500936519001929  0.8316701943556378
 
  0.00000000E+00  0.00000000E+00  0.00000000E+00
  0.00000000E+00  0.00000000E+00  0.00000000E+00
  0.00000000E+00  0.00000000E+00  0.00000000E+00
  0.00000000E+00  0.00000000E+00  0.00000000E+00
  0.00000000E+00  0.00000000E+00  0.00000000E+00
  0.00000000E+00  0.00000000E+00  0.00000000E+00
  0.00000000E+00  0.00000000E+00  0.00000000E+00
  0.00000000E+00  0.00000000E+00  0.00000000E+00
  0.00000000E+00  0.00000000E+00  0.00000000E+00
  0.00000000E+00  0.00000000E+00  0.00000000E+00
  0.00000000E+00  0.00000000E+00  0.00000000E+00
  0.00000000E+00  0.00000000E+00  0.00000000E+00
  0.00000000E+00  0.00000000E+00  0.00000000E+00
  0.00000000E+00  0.00000000E+00  0.00000000E+00
  0.00000000E+00  0.00000000E+00  0.00000000E+00
  0.00000000E+00  0.00000000E+00  0.00000000E+00
  0.00000000E+00  0.00000000E+00  0.00000000E+00
  0.00000000E+00  0.00000000E+00  0.00000000E+00
  0.00000000E+00  0.00000000E+00  0.00000000E+00
  0.00000000E+00  0.00000000E+00  0.00000000E+00
  0.00000000E+00  0.00000000E+00  0.00000000E+00
  0.00000000E+00  0.00000000E+00  0.00000000E+00
  0.00000000E+00  0.00000000E+00  0.00000000E+00
  0.00000000E+00  0.00000000E+00  0.00000000E+00
  0.00000000E+00  0.00000000E+00  0.00000000E+00
  0.00000000E+00  0.00000000E+00  0.00000000E+00
  0.00000000E+00  0.00000000E+00  0.00000000E+00
