H2O                                     
   1.00000000000000     
    11.6809712054918897    0.0000000000000000    0.0000000000000000
     0.0000000000000000    4.3805766071519194    0.0000000000000000
     0.0000000000000000    0.0000000000000000    5.1659992205655580
   H    O 
    20    10
Direct
  0.4535249814842470  0.3699640643764115  0.0580909199156532
  0.5464750185158526  0.6300359356235956  0.0580909199156319
  0.9535249814841474  0.1300359356235885  0.5580909199156319
  0.0464750185158525  0.8699640643764044  0.5580909199156319
  0.7778740738630386  0.3031748589024071  0.4217025396257322
  0.2221259261369614  0.6968251410974934  0.4217025396259383
  0.2778740738630386  0.1968251410974935  0.9217025396259382
  0.7221259261369614  0.8031748589025066  0.9217025396259382
  0.8653123503529230  0.4801192007267089  0.2435322051169181
  0.1346876496474678  0.5198807992730921  0.2435322051166197
  0.3653123503525322  0.0198807992730920  0.7435322051166197
  0.6346876496474749  0.9801192007269079  0.7435322051166197
  0.1402531014197973  0.0154700663195526  0.1565030841396723
  0.8597468985804017  0.9845299336804900  0.1565030841394734
  0.6402531014195983  0.4845299336804900  0.6565030841394733
  0.3597468985804017  0.5154700663195100  0.6565030841394733
  0.0885449033808178  0.1582680096825025  0.9042292268101398
  0.9114550966192034  0.8417319903174975  0.9042292268102819
  0.5885449033807966  0.3417319903175047  0.4042292268102818
  0.4114550966192035  0.6582680096825025  0.4042292268102818
  0.5000000000000000  0.5000000000000000  0.1716535152193878
 -0.0000000000000000 -0.0000000000000000  0.6716535152196862
  0.8560274551295439  0.2961163809149642  0.3501256462609865
  0.1439725448699658  0.7038836190853412  0.3501256462608870
  0.3560274551300271  0.2038836190853413  0.8501256462608870
  0.6439725448699587  0.7961163809146588  0.8501256462608870
  0.1421256411424976  0.1996957790886688  0.0466446205208949
  0.8578743588579002  0.8003042209111322  0.0466446205209162
  0.6421256411420998  0.3003042209111322  0.5466446205209091
  0.3578743588579004  0.6996957790888678  0.5466446205209091
 
  0.00000000E+00  0.00000000E+00  0.00000000E+00
  0.00000000E+00  0.00000000E+00  0.00000000E+00
  0.00000000E+00  0.00000000E+00  0.00000000E+00
  0.00000000E+00  0.00000000E+00  0.00000000E+00
  0.00000000E+00  0.00000000E+00  0.00000000E+00
  0.00000000E+00  0.00000000E+00  0.00000000E+00
  0.00000000E+00  0.00000000E+00  0.00000000E+00
  0.00000000E+00  0.00000000E+00  0.00000000E+00
  0.00000000E+00  0.00000000E+00  0.00000000E+00
  0.00000000E+00  0.00000000E+00  0.00000000E+00
  0.00000000E+00  0.00000000E+00  0.00000000E+00
  0.00000000E+00  0.00000000E+00  0.00000000E+00
  0.00000000E+00  0.00000000E+00  0.00000000E+00
  0.00000000E+00  0.00000000E+00  0.00000000E+00
  0.00000000E+00  0.00000000E+00  0.00000000E+00
  0.00000000E+00  0.00000000E+00  0.00000000E+00
  0.00000000E+00  0.00000000E+00  0.00000000E+00
  0.00000000E+00  0.00000000E+00  0.00000000E+00
  0.00000000E+00  0.00000000E+00  0.00000000E+00
  0.00000000E+00  0.00000000E+00  0.00000000E+00
  0.00000000E+00  0.00000000E+00  0.00000000E+00
  0.00000000E+00  0.00000000E+00  0.00000000E+00
  0.00000000E+00  0.00000000E+00  0.00000000E+00
  0.00000000E+00  0.00000000E+00  0.00000000E+00
  0.00000000E+00  0.00000000E+00  0.00000000E+00
  0.00000000E+00  0.00000000E+00  0.00000000E+00
  0.00000000E+00  0.00000000E+00  0.00000000E+00
  0.00000000E+00  0.00000000E+00  0.00000000E+00
  0.00000000E+00  0.00000000E+00  0.00000000E+00
  0.00000000E+00  0.00000000E+00  0.00000000E+00
