H2O                                     
   1.00000000000000     
     4.5261348498893632    0.0000000000000000   -0.0048144301493278
     0.0000000000000000    7.8092387048460870    0.0000000000000000
     0.0148799324088274    0.0000000000000000    4.4903743682533221
   H    O 
    12     6
Direct
  0.7006596478777407  0.0997004940938395  0.6770926262424356
  0.7006596478777407  0.9002995059057697  0.6770926262427411
  0.0432903574059091  0.5000000000000000  0.8852100260912084
  0.0297111922970562  0.5000000000000000  0.5335070226464558
  0.0731610998743111  0.0000000000000000  0.0123628510296320
  0.4220938457379013  0.0000000000000000  0.9992951964455323
  0.7073702639011926  0.4002512964078760  0.2568387815953952
  0.7073702639013916  0.5997487035920244  0.2568387815954947
  0.3770454992429241  0.3272779640584643  0.5792408444721850
  0.3770454992432155  0.6727220359416353  0.5792408444717871
  0.3753480739383424  0.1734585727113700  0.3489619625492509
  0.3753480739382429  0.8265414272887296  0.3489619625493504
  0.7544260372832671  0.0000000000000000  0.7985578947148351
  0.1652932351652787  0.5000000000000000  0.7041188492623452
  0.2521120334136164  0.0000000000000000  0.1354520749195754
  0.8290094655819261  0.5000000000000000  0.2045035045032977
  0.5041778816598007  0.2503166867096418  0.4628670753340779
  0.5041778816596018  0.7496833132907563  0.4628670753336800
 
  0.00000000E+00  0.00000000E+00  0.00000000E+00
  0.00000000E+00  0.00000000E+00  0.00000000E+00
  0.00000000E+00  0.00000000E+00  0.00000000E+00
  0.00000000E+00  0.00000000E+00  0.00000000E+00
  0.00000000E+00  0.00000000E+00  0.00000000E+00
  0.00000000E+00  0.00000000E+00  0.00000000E+00
  0.00000000E+00  0.00000000E+00  0.00000000E+00
  0.00000000E+00  0.00000000E+00  0.00000000E+00
  0.00000000E+00  0.00000000E+00  0.00000000E+00
  0.00000000E+00  0.00000000E+00  0.00000000E+00
  0.00000000E+00  0.00000000E+00  0.00000000E+00
  0.00000000E+00  0.00000000E+00  0.00000000E+00
  0.00000000E+00  0.00000000E+00  0.00000000E+00
  0.00000000E+00  0.00000000E+00  0.00000000E+00
  0.00000000E+00  0.00000000E+00  0.00000000E+00
  0.00000000E+00  0.00000000E+00  0.00000000E+00
  0.00000000E+00  0.00000000E+00  0.00000000E+00
  0.00000000E+00  0.00000000E+00  0.00000000E+00
