H2O                                     
   1.00000000000000     
    12.7207510145900891    0.1875812588620692    0.1469068565715107
     1.8796764511617159    4.0347832329564977   -0.0403826205058187
    -1.2618038554332627   -1.6834480177643343    6.5425675740188574
   H    O 
    24    12
Direct
  0.3262405231750422  0.5976089016608697  0.4617190451613825
  0.2088433479377315  0.5635083987470589  0.4295790402569372
  0.6979284683962913  0.6586454619781379  0.5339635616639460
  0.7330407735784303  0.8682968176644262  0.7464223689432254
  0.3392349171854155  0.1241548753181018  0.5424900032054678
  0.3079034824802763  0.0777005039657983  0.7399039907149668
  0.8281777186226270  0.1358976777610696  0.0339946202738522
  0.8989647711588727  0.3202658487092521  0.2008791228788630
  0.1824181318407265  0.5250798580956438  0.9705950708637076
  0.2681665787944666  0.3044360332502090  0.1164930900184640
  0.6735591977205876  0.1768421201854991  0.4883618216143658
  0.6909803989844135  0.1977079563108581  0.2765170564113438
  0.1432568923213446  0.0723571506662880  0.9550218388416328
  0.0220534255453205  0.0500330067918285  0.9676998081467580
  0.7871980999621925  0.6660831244509374  0.0240364982343974
  0.6550549751366559  0.9038522395696214  0.9841226003613224
  0.0795864339225100  0.8495482935328718  0.6621960880630751
  0.0222284900195894  0.0326542426206695  0.4846055819787518
  0.8695684075502798  0.5844590553024150  0.5124323548602633
  0.9882755633815407  0.5718554622119970  0.4609941560132834
  0.5042215801791224  0.5802248809168119  0.2674382023406431
  0.4685497416837032  0.3743546569853112  0.0656431508922315
  0.4800636170069014  0.9037540385580771  0.8067523615553458
  0.5002246630193856  0.7958273066034797  0.0133778142481468
  0.2915918688083090  0.4299696661082727  0.3991353728366691
  0.7318293707780387  0.8303369554918453  0.5985147922451952
  0.3592409448581453  0.9588642269789041  0.6248490441078303
  0.8761227606442695  0.2643339702256830  0.0526174821459238
  0.2283205250002733  0.2865794027744106  0.9806282916215348
  0.6551434586024454  0.3406540332924310  0.4062143483224937
  0.1005995421352615  0.9206391027913291  0.9159349867607620
  0.7348280109909107  0.9021033637127993  0.0132712540481740
  0.0657632729425536  0.8042617618143878  0.5118815646617642
  0.9420660685888993  0.4325022271040347  0.4396549507544029
  0.4567394998122514  0.6102710755232755  0.1424125034552464
  0.5248044772320438  0.9105363023305499  0.9382861614981118
 
  0.00000000E+00  0.00000000E+00  0.00000000E+00
  0.00000000E+00  0.00000000E+00  0.00000000E+00
  0.00000000E+00  0.00000000E+00  0.00000000E+00
  0.00000000E+00  0.00000000E+00  0.00000000E+00
  0.00000000E+00  0.00000000E+00  0.00000000E+00
  0.00000000E+00  0.00000000E+00  0.00000000E+00
  0.00000000E+00  0.00000000E+00  0.00000000E+00
  0.00000000E+00  0.00000000E+00  0.00000000E+00
  0.00000000E+00  0.00000000E+00  0.00000000E+00
  0.00000000E+00  0.00000000E+00  0.00000000E+00
  0.00000000E+00  0.00000000E+00  0.00000000E+00
  0.00000000E+00  0.00000000E+00  0.00000000E+00
  0.00000000E+00  0.00000000E+00  0.00000000E+00
  0.00000000E+00  0.00000000E+00  0.00000000E+00
  0.00000000E+00  0.00000000E+00  0.00000000E+00
  0.00000000E+00  0.00000000E+00  0.00000000E+00
  0.00000000E+00  0.00000000E+00  0.00000000E+00
  0.00000000E+00  0.00000000E+00  0.00000000E+00
  0.00000000E+00  0.00000000E+00  0.00000000E+00
  0.00000000E+00  0.00000000E+00  0.00000000E+00
  0.00000000E+00  0.00000000E+00  0.00000000E+00
  0.00000000E+00  0.00000000E+00  0.00000000E+00
  0.00000000E+00  0.00000000E+00  0.00000000E+00
  0.00000000E+00  0.00000000E+00  0.00000000E+00
  0.00000000E+00  0.00000000E+00  0.00000000E+00
  0.00000000E+00  0.00000000E+00  0.00000000E+00
  0.00000000E+00  0.00000000E+00  0.00000000E+00
  0.00000000E+00  0.00000000E+00  0.00000000E+00
  0.00000000E+00  0.00000000E+00  0.00000000E+00
  0.00000000E+00  0.00000000E+00  0.00000000E+00
  0.00000000E+00  0.00000000E+00  0.00000000E+00
  0.00000000E+00  0.00000000E+00  0.00000000E+00
  0.00000000E+00  0.00000000E+00  0.00000000E+00
  0.00000000E+00  0.00000000E+00  0.00000000E+00
  0.00000000E+00  0.00000000E+00  0.00000000E+00
  0.00000000E+00  0.00000000E+00  0.00000000E+00
