H2O                                     
   1.00000000000000     
     9.3194793394635358   -5.3805995914254483    0.0000000000000000
    -0.0000037359651590   10.7612056537323699   -0.0000000000000000
     0.0000000000000000   -0.0000000000000000    4.4544141150674204
   H    O 
    24    12
Direct
  0.9738340699185530  0.6267830061163476  0.4273405882370420
  0.6267830061164471  0.6529489361978227  0.9273405882372411
  0.0261659300813758  0.3732169938835530  0.9273405882372411
  0.3732169938835530  0.3470510638021843  0.0726594117627590
  0.3470510638021843  0.9738340699186241  0.9273405882372411
  0.6529489361978227  0.0261659300813758  0.0726594117627590
  0.9738340699186241  0.6267830061164471  0.0726594117627590
  0.3470510638021843  0.9738340699186241  0.5726594117627589
  0.6529489361978227  0.0261659300813758  0.4273405882372409
  0.3732169938835530  0.3470510638021843  0.4273405882372409
  0.6267830061164471  0.6529489361978227  0.5726594117627589
  0.0261659300813758  0.3732169938835530  0.5726594117627589
  0.5880081776794489  0.8304409435871835  0.7500000000000000
  0.8304409435869845  0.2424327659078198  0.2500000000000000
  0.4119918223208495  0.1695590564130156  0.2500000000000000
  0.1695590564130156  0.7575672340921803  0.7500000000000000
  0.7575672340921803  0.5880081776791505  0.2500000000000000
  0.2424327659078198  0.4119918223208495  0.7500000000000000
  0.4880211622845549  0.9001583588500828  0.7500000000000000
  0.9001583588499904  0.4121371965655350  0.2500000000000000
  0.5119788377155444  0.0998416411500096  0.2500000000000000
  0.0998416411500096  0.5878628034344723  0.7500000000000000
  0.5878628034344723  0.4880211622844554  0.2500000000000000
  0.4121371965655350  0.5119788377155444  0.7500000000000000
  0.9124292323969625  0.5844420199007850  0.2500000000000000
  0.5844420199008845  0.6720127875041707  0.7500000000000000
  0.0875707676033003  0.4155579800991155  0.7500000000000000
  0.4155579800991155  0.3279872124958294  0.2500000000000000
  0.3279872124958294  0.9124292323966996  0.7500000000000000
  0.6720127875041707  0.0875707676033003  0.2500000000000000
  0.5881002418855531  0.9221434566932084  0.7500000000000000
  0.9221434566934429  0.3340432148083515  0.2500000000000000
  0.4118997581149513  0.0778565433065573  0.2500000000000000
  0.0778565433065573  0.6659567851916414  0.7500000000000000
  0.6659567851916414  0.5881002418850557  0.2500000000000000
  0.3340432148083515  0.4118997581149513  0.7500000000000000
 
  0.00000000E+00  0.00000000E+00  0.00000000E+00
  0.00000000E+00  0.00000000E+00  0.00000000E+00
  0.00000000E+00  0.00000000E+00  0.00000000E+00
  0.00000000E+00  0.00000000E+00  0.00000000E+00
  0.00000000E+00  0.00000000E+00  0.00000000E+00
  0.00000000E+00  0.00000000E+00  0.00000000E+00
  0.00000000E+00  0.00000000E+00  0.00000000E+00
  0.00000000E+00  0.00000000E+00  0.00000000E+00
  0.00000000E+00  0.00000000E+00  0.00000000E+00
  0.00000000E+00  0.00000000E+00  0.00000000E+00
  0.00000000E+00  0.00000000E+00  0.00000000E+00
  0.00000000E+00  0.00000000E+00  0.00000000E+00
  0.00000000E+00  0.00000000E+00  0.00000000E+00
  0.00000000E+00  0.00000000E+00  0.00000000E+00
  0.00000000E+00  0.00000000E+00  0.00000000E+00
  0.00000000E+00  0.00000000E+00  0.00000000E+00
  0.00000000E+00  0.00000000E+00  0.00000000E+00
  0.00000000E+00  0.00000000E+00  0.00000000E+00
  0.00000000E+00  0.00000000E+00  0.00000000E+00
  0.00000000E+00  0.00000000E+00  0.00000000E+00
  0.00000000E+00  0.00000000E+00  0.00000000E+00
  0.00000000E+00  0.00000000E+00  0.00000000E+00
  0.00000000E+00  0.00000000E+00  0.00000000E+00
  0.00000000E+00  0.00000000E+00  0.00000000E+00
  0.00000000E+00  0.00000000E+00  0.00000000E+00
  0.00000000E+00  0.00000000E+00  0.00000000E+00
  0.00000000E+00  0.00000000E+00  0.00000000E+00
  0.00000000E+00  0.00000000E+00  0.00000000E+00
  0.00000000E+00  0.00000000E+00  0.00000000E+00
  0.00000000E+00  0.00000000E+00  0.00000000E+00
  0.00000000E+00  0.00000000E+00  0.00000000E+00
  0.00000000E+00  0.00000000E+00  0.00000000E+00
  0.00000000E+00  0.00000000E+00  0.00000000E+00
  0.00000000E+00  0.00000000E+00  0.00000000E+00
  0.00000000E+00  0.00000000E+00  0.00000000E+00
  0.00000000E+00  0.00000000E+00  0.00000000E+00
