H2O                                     
   1.00000000000000     
     5.3540132038253301   -3.0911395720725245   -0.0000000000000000
    -0.0000012058544993    6.1822812327463117    0.0000000000000000
     0.0000000000000000    0.0000000000000000    5.9165582698835095
   H    O 
    12     6
Direct
  0.3368934444291415  0.5719776643436141  0.1421436458018102
  0.4280223356560875  0.7649157800850371  0.4754769791355438
  0.2350842199149628  0.6631065555710575  0.8088103124688795
  0.0608229383496073  0.3690160111968071  0.0743533640585666
  0.6309839888032924  0.6918069271529566  0.4076866973919308
  0.3081930728470506  0.9391770616503501  0.7410200307252593
  0.6839407522690730  0.0557553790468255  0.2318652589098045
  0.9442446209531461  0.6281853732226169  0.5651985922434316
  0.3718146267773830  0.3160592477305291  0.8985319255767602
  0.6497060395672689  0.2254912830152474  0.0505297889931716
  0.7745087169848520  0.4242147565516378  0.3838631223265499
  0.5757852434483621  0.3502939604332356  0.7171964556598855
  0.2320541398953896  0.4692070372243852  0.0156582658509517
  0.5307929627755225  0.7628471026705284  0.3489915991842874
  0.2371528973294788  0.7679458601050154  0.6823249325176161
  0.7597146122459904  0.2266982659781828  0.1714896763856370
  0.7733017340216183  0.5330163462678076  0.5048230097187737
  0.4669836537321925  0.2402853877538107  0.8381563430521023
 
  0.00000000E+00  0.00000000E+00  0.00000000E+00
  0.00000000E+00  0.00000000E+00  0.00000000E+00
  0.00000000E+00  0.00000000E+00  0.00000000E+00
  0.00000000E+00  0.00000000E+00  0.00000000E+00
  0.00000000E+00  0.00000000E+00  0.00000000E+00
  0.00000000E+00  0.00000000E+00  0.00000000E+00
  0.00000000E+00  0.00000000E+00  0.00000000E+00
  0.00000000E+00  0.00000000E+00  0.00000000E+00
  0.00000000E+00  0.00000000E+00  0.00000000E+00
  0.00000000E+00  0.00000000E+00  0.00000000E+00
  0.00000000E+00  0.00000000E+00  0.00000000E+00
  0.00000000E+00  0.00000000E+00  0.00000000E+00
  0.00000000E+00  0.00000000E+00  0.00000000E+00
  0.00000000E+00  0.00000000E+00  0.00000000E+00
  0.00000000E+00  0.00000000E+00  0.00000000E+00
  0.00000000E+00  0.00000000E+00  0.00000000E+00
  0.00000000E+00  0.00000000E+00  0.00000000E+00
  0.00000000E+00  0.00000000E+00  0.00000000E+00
