H2O                                     
   1.00000000000000     
     5.6863510620796465   -0.0243676014964898    0.0009512290981132
     0.0422260016795607    6.0773030403801354   -0.0207682863344575
     0.0455547879563808    0.0812205459053770    6.0821679568862317
   H    O 
    20    10
Direct
  0.5148770889333101  0.2530670506121647  0.5477974064755586
  0.4851301032665353  0.7469331604542494  0.4522015033363914
  0.2746354600691721  0.1344043227729991  0.5412277998406789
  0.7253709170553416  0.8655960636309550  0.4587724929139914
  0.2029005788149855  0.4554411369769211  0.8774793397760950
  0.7971060387395261  0.5445580958659819  0.1225210370359443
  0.2061549468319371  0.4684940637788955  0.6272787058978950
  0.7938512636409455  0.5315049523456238  0.3727207235444665
  0.3735732908032572  0.2462767090369356  0.1845855903318143
  0.6264322841640324  0.7537229007190887  0.8154146027588420
  0.5139439901549931  0.2496387641243914  0.9565260725953958
  0.4860628716248871  0.7503610440070859  0.0434743942339598
  0.8535936369499114  0.1324528346433093  0.7452123090182630
  0.1464125176033360  0.8675497519197469  0.2547872191457055
  0.8449569263029788  0.3837533343158712  0.7497099303829483
  0.1550497326854183  0.6162456833954961  0.2502897211798685
  0.1239456154388080  0.8190517762620102  0.7562035004861108
  0.8760609146357282  0.1809477429552019  0.2437965001850535
  0.1995494772464365  0.0409825531041395  0.8724707473815764
  0.8004573555540080  0.9590176548745329  0.1275293283986377
  0.3650939806664257  0.2521509051937558  0.4692930208339619
  0.6349126928185210  0.7478491486668117  0.5307068715266153
  0.1287985278987629  0.5344628093304752  0.7545925636748805
  0.8712104004260116  0.4655373063258094  0.2454073764743782
  0.3576819837635165  0.2474636802365611  0.0241199480597747
  0.6423248490698332  0.7525365305397171  0.9758801452054324
  0.7418669202098132  0.2557018052450089  0.7488233252548656
  0.2581370980098993  0.7442987770800700  0.2511772283863562
  0.1171321557361676  0.9801606054299941  0.7465437616342845
  0.8828738022330401  0.0198388361568644  0.2534568340293868
 
  0.00000000E+00  0.00000000E+00  0.00000000E+00
  0.00000000E+00  0.00000000E+00  0.00000000E+00
  0.00000000E+00  0.00000000E+00  0.00000000E+00
  0.00000000E+00  0.00000000E+00  0.00000000E+00
  0.00000000E+00  0.00000000E+00  0.00000000E+00
  0.00000000E+00  0.00000000E+00  0.00000000E+00
  0.00000000E+00  0.00000000E+00  0.00000000E+00
  0.00000000E+00  0.00000000E+00  0.00000000E+00
  0.00000000E+00  0.00000000E+00  0.00000000E+00
  0.00000000E+00  0.00000000E+00  0.00000000E+00
  0.00000000E+00  0.00000000E+00  0.00000000E+00
  0.00000000E+00  0.00000000E+00  0.00000000E+00
  0.00000000E+00  0.00000000E+00  0.00000000E+00
  0.00000000E+00  0.00000000E+00  0.00000000E+00
  0.00000000E+00  0.00000000E+00  0.00000000E+00
  0.00000000E+00  0.00000000E+00  0.00000000E+00
  0.00000000E+00  0.00000000E+00  0.00000000E+00
  0.00000000E+00  0.00000000E+00  0.00000000E+00
  0.00000000E+00  0.00000000E+00  0.00000000E+00
  0.00000000E+00  0.00000000E+00  0.00000000E+00
  0.00000000E+00  0.00000000E+00  0.00000000E+00
  0.00000000E+00  0.00000000E+00  0.00000000E+00
  0.00000000E+00  0.00000000E+00  0.00000000E+00
  0.00000000E+00  0.00000000E+00  0.00000000E+00
  0.00000000E+00  0.00000000E+00  0.00000000E+00
  0.00000000E+00  0.00000000E+00  0.00000000E+00
  0.00000000E+00  0.00000000E+00  0.00000000E+00
  0.00000000E+00  0.00000000E+00  0.00000000E+00
  0.00000000E+00  0.00000000E+00  0.00000000E+00
  0.00000000E+00  0.00000000E+00  0.00000000E+00
