H2O                                     
   1.00000000000000     
     6.7756536337267574   -0.0711580802768426   -0.0345723887119789
    -0.0946974793276595    6.1203592996713088   -0.0126518295110347
    -2.7960455891291143   -0.6203446523859746    7.2120933634559714
   H    O 
    24    12
Direct
  0.0988930714062803  0.2363980815431077  0.9380194690885588
  0.1995008002811787  0.0597715002799717  0.0849573606763130
  0.2780754755883450  0.4033090330790046  0.4084127712085319
  0.4017041742076870  0.2808840810901287  0.5873055329371084
  0.6356762162741276  0.6741914721496229  0.9201035735422920
  0.5895661698282595  0.4700596667120251  0.0064965952779446
  0.0398210114317976  0.7790115027256874  0.4677388985827520
  0.9249133563997063  0.9756495935344844  0.5223667569512287
  0.6563090420758471  0.2791318259005209  0.4670852377718759
  0.9030922348804111  0.3268069852300144  0.5592400781782416
  0.9542222320997809  0.5247454183409133  0.1873665537426064
  0.1555721551741982  0.6763569765999620  0.2169818825820968
  0.2450938229223283  0.4936949083414817  0.8140674642628127
  0.0264713650128954  0.5565735235684315  0.8207407824429538
  0.9374962339023440  0.8846142666181862  0.9157179177075818
  0.7811682074369131  0.7655684111768792  0.7319302461018111
  0.5035213502182572  0.6467507459898059  0.5324666223427812
  0.5035474815993837  0.8950869052677035  0.6052844863158597
  0.2702155053921089  0.0070310761022654  0.7001493387334605
  0.4871612287653804  0.1019191895082443  0.8689093271804254
  0.4247557209107171  0.7624867169983887  0.0962144102931575
  0.4514756135225753  0.8449073344827838  0.3015279218938858
  0.8476984690345333  0.1887865622297298  0.0717219637544133
  0.7472523855135975  0.2281019533346864  0.2245211797719406
  0.0704680623103044  0.1332957879492440  0.0183911070812997
  0.4179609020878416  0.3696894626761633  0.4929224570125612
  0.5255728632438590  0.6034048268673899  0.9543255236541128
  0.0377170796564741  0.8766539093430694  0.5720198585630456
  0.7913883334737193  0.2392857731072482  0.4587370266106277
  0.0791286575272423  0.5976251554082097  0.2812027755605513
  0.1017438849369583  0.4339031595427087  0.7887594786415661
  0.8594138932024507  0.7430288940689138  0.8627238655016285
  0.5612861247040684  0.7953252903066144  0.5326505206280530
  0.4139906256610715  0.0781983107733382  0.7354033113189047
  0.3551711103877224  0.8414091971788267  0.1711920447048954
  0.7195851389308032  0.2347925019740416  0.0916656593823433
 
  0.00000000E+00  0.00000000E+00  0.00000000E+00
  0.00000000E+00  0.00000000E+00  0.00000000E+00
  0.00000000E+00  0.00000000E+00  0.00000000E+00
  0.00000000E+00  0.00000000E+00  0.00000000E+00
  0.00000000E+00  0.00000000E+00  0.00000000E+00
  0.00000000E+00  0.00000000E+00  0.00000000E+00
  0.00000000E+00  0.00000000E+00  0.00000000E+00
  0.00000000E+00  0.00000000E+00  0.00000000E+00
  0.00000000E+00  0.00000000E+00  0.00000000E+00
  0.00000000E+00  0.00000000E+00  0.00000000E+00
  0.00000000E+00  0.00000000E+00  0.00000000E+00
  0.00000000E+00  0.00000000E+00  0.00000000E+00
  0.00000000E+00  0.00000000E+00  0.00000000E+00
  0.00000000E+00  0.00000000E+00  0.00000000E+00
  0.00000000E+00  0.00000000E+00  0.00000000E+00
  0.00000000E+00  0.00000000E+00  0.00000000E+00
  0.00000000E+00  0.00000000E+00  0.00000000E+00
  0.00000000E+00  0.00000000E+00  0.00000000E+00
  0.00000000E+00  0.00000000E+00  0.00000000E+00
  0.00000000E+00  0.00000000E+00  0.00000000E+00
  0.00000000E+00  0.00000000E+00  0.00000000E+00
  0.00000000E+00  0.00000000E+00  0.00000000E+00
  0.00000000E+00  0.00000000E+00  0.00000000E+00
  0.00000000E+00  0.00000000E+00  0.00000000E+00
  0.00000000E+00  0.00000000E+00  0.00000000E+00
  0.00000000E+00  0.00000000E+00  0.00000000E+00
  0.00000000E+00  0.00000000E+00  0.00000000E+00
  0.00000000E+00  0.00000000E+00  0.00000000E+00
  0.00000000E+00  0.00000000E+00  0.00000000E+00
  0.00000000E+00  0.00000000E+00  0.00000000E+00
  0.00000000E+00  0.00000000E+00  0.00000000E+00
  0.00000000E+00  0.00000000E+00  0.00000000E+00
  0.00000000E+00  0.00000000E+00  0.00000000E+00
  0.00000000E+00  0.00000000E+00  0.00000000E+00
  0.00000000E+00  0.00000000E+00  0.00000000E+00
  0.00000000E+00  0.00000000E+00  0.00000000E+00
