H2O                                     
   1.00000000000000     
     6.8284063083091500    0.0000000000000000    0.0000000000000000
     0.0000000000000000    7.1078987199197039    0.0000000000000000
     0.0000000000000000    0.0000000000000000    4.5174058916551258
   H    O 
    16     8
Direct
  0.1417824312625178  0.3352719789120399  0.8239625809776978
  0.8582175687379795  0.6647280210880595  0.1760374190219967
  0.3582175687379796  0.8352719789119405  0.6760374190219895
  0.8582175687379795  0.6647280210880595  0.8239625809780105
  0.6417824312620205  0.1647280210880595  0.3239625809779962
  0.3582175687379796  0.8352719789119405  0.3239625809779962
  0.1417824312620204  0.3352719789119404  0.1760374190219967
  0.6417824312620205  0.1647280210880595  0.6760374190219895
  0.7904893387991498  0.9542304467034546  0.0000000000000000
  0.2095106612007577  0.0457695532960836 -0.0000000000000000
  0.7095106612007507  0.4542304467039164  0.5000000000000000
  0.2904893387992494  0.5457695532960836  0.5000000000000000
  0.8727297650175755  0.1592703489085600  0.0000000000000000
  0.1272702349824245  0.8407296510911275  0.0000000000000000
  0.6272702349824245  0.6592703489088725  0.5000000000000000
  0.3727297650175684  0.3407296510911345  0.5000000000000000
  0.0958187008216446  0.2670971018570626  0.0000000000000000
  0.9041812991783127  0.7329028981428379  0.0000000000000000
  0.4041812991783057  0.7670971018571621  0.5000000000000000
  0.5958187008216873  0.2329028981428451  0.5000000000000000
  0.7498041023308178  0.0867741963241801 -0.0000000000000000
  0.2501958976688837  0.9132258036758057 -0.0000000000000000
  0.7501958976688837  0.5867741963241943  0.5000000000000000
  0.2498041023311162  0.4132258036758056  0.5000000000000000
 
  0.00000000E+00  0.00000000E+00  0.00000000E+00
  0.00000000E+00  0.00000000E+00  0.00000000E+00
  0.00000000E+00  0.00000000E+00  0.00000000E+00
  0.00000000E+00  0.00000000E+00  0.00000000E+00
  0.00000000E+00  0.00000000E+00  0.00000000E+00
  0.00000000E+00  0.00000000E+00  0.00000000E+00
  0.00000000E+00  0.00000000E+00  0.00000000E+00
  0.00000000E+00  0.00000000E+00  0.00000000E+00
  0.00000000E+00  0.00000000E+00  0.00000000E+00
  0.00000000E+00  0.00000000E+00  0.00000000E+00
  0.00000000E+00  0.00000000E+00  0.00000000E+00
  0.00000000E+00  0.00000000E+00  0.00000000E+00
  0.00000000E+00  0.00000000E+00  0.00000000E+00
  0.00000000E+00  0.00000000E+00  0.00000000E+00
  0.00000000E+00  0.00000000E+00  0.00000000E+00
  0.00000000E+00  0.00000000E+00  0.00000000E+00
  0.00000000E+00  0.00000000E+00  0.00000000E+00
  0.00000000E+00  0.00000000E+00  0.00000000E+00
  0.00000000E+00  0.00000000E+00  0.00000000E+00
  0.00000000E+00  0.00000000E+00  0.00000000E+00
  0.00000000E+00  0.00000000E+00  0.00000000E+00
  0.00000000E+00  0.00000000E+00  0.00000000E+00
  0.00000000E+00  0.00000000E+00  0.00000000E+00
  0.00000000E+00  0.00000000E+00  0.00000000E+00
