H2O                                     
   1.00000000000000     
     5.6861743925837702   -0.0252456061840635    0.0017062124496637
     0.0435771226821825    6.0777576204794874   -0.0180994945649262
     0.0441574470112123    0.0798156992588409    6.0820446032042463
   H    O 
    20    10
Direct
  0.5149302444401869  0.2531309915810416  0.5478170204332456
  0.4850788539708105  0.7468690920967381  0.4521876498299212
  0.2746953606793038  0.1344772208876450  0.5412242502954938
  0.7253140927265044  0.8655240768526563  0.4587752667880278
  0.2029016943213287  0.4554255141382071  0.8774843219299193
  0.7971046214867719  0.5445734410510618  0.1225195245622105
  0.2061417535693649  0.4685845743748588  0.6272760510350991
  0.7938652539829385  0.5314113444500828  0.3727214832373011
  0.3735986502793990  0.2462824885790572  0.1846207792593035
  0.6264004204037178  0.7537195152385709  0.8153818674730746
  0.5139501189659452  0.2496080191357825  0.9565501432114445
  0.4860535505844472  0.7503929611805161  0.0434551499500133
  0.8536383121109283  0.1324773651454880  0.7452135609698259
  0.1463673066160073  0.8675249460428648  0.2547831031063894
  0.8449831568104409  0.3837571270807847  0.7497445083675944
  0.1550241736158328  0.6162460985427074  0.2502588025502315
  0.1239821898024555  0.8191252062953591  0.7562593132520039
  0.8760253289490251  0.1808753379248771  0.2437347027566552
  0.1995954739310420  0.0410216392974856  0.8725168598214742
  0.8004110796782290  0.9589767972693897  0.1274799101746989
  0.3651461961029464  0.2522209675882257  0.4692900047998280
  0.6348657312074431  0.7477791305469161  0.5307100804687169
  0.1287833310203925  0.5344849449112192  0.7546031498378487
  0.8712292302671528  0.4655131107453422  0.2453974573843772
  0.3576927648084490  0.2474330313744662  0.0241475771283311
  0.6423098270835145  0.7525603473049997  0.9758551651834133
  0.7418992805190647  0.2557162776508928  0.7488361377219070
  0.2581077375417019  0.7442879352646347  0.2511617707193883
  0.1171645716404433  0.9802203069088378  0.7465909362656747
  0.8828434707310512  0.0197801905377632  0.2534034514868571
 
  0.00000000E+00  0.00000000E+00  0.00000000E+00
  0.00000000E+00  0.00000000E+00  0.00000000E+00
  0.00000000E+00  0.00000000E+00  0.00000000E+00
  0.00000000E+00  0.00000000E+00  0.00000000E+00
  0.00000000E+00  0.00000000E+00  0.00000000E+00
  0.00000000E+00  0.00000000E+00  0.00000000E+00
  0.00000000E+00  0.00000000E+00  0.00000000E+00
  0.00000000E+00  0.00000000E+00  0.00000000E+00
  0.00000000E+00  0.00000000E+00  0.00000000E+00
  0.00000000E+00  0.00000000E+00  0.00000000E+00
  0.00000000E+00  0.00000000E+00  0.00000000E+00
  0.00000000E+00  0.00000000E+00  0.00000000E+00
  0.00000000E+00  0.00000000E+00  0.00000000E+00
  0.00000000E+00  0.00000000E+00  0.00000000E+00
  0.00000000E+00  0.00000000E+00  0.00000000E+00
  0.00000000E+00  0.00000000E+00  0.00000000E+00
  0.00000000E+00  0.00000000E+00  0.00000000E+00
  0.00000000E+00  0.00000000E+00  0.00000000E+00
  0.00000000E+00  0.00000000E+00  0.00000000E+00
  0.00000000E+00  0.00000000E+00  0.00000000E+00
  0.00000000E+00  0.00000000E+00  0.00000000E+00
  0.00000000E+00  0.00000000E+00  0.00000000E+00
  0.00000000E+00  0.00000000E+00  0.00000000E+00
  0.00000000E+00  0.00000000E+00  0.00000000E+00
  0.00000000E+00  0.00000000E+00  0.00000000E+00
  0.00000000E+00  0.00000000E+00  0.00000000E+00
  0.00000000E+00  0.00000000E+00  0.00000000E+00
  0.00000000E+00  0.00000000E+00  0.00000000E+00
  0.00000000E+00  0.00000000E+00  0.00000000E+00
  0.00000000E+00  0.00000000E+00  0.00000000E+00
