H2O                                     
   1.00000000000000     
     8.3597579052850790    0.0000000000000000   -0.0182888090074827
     0.0000000000000000    6.0012379785246317    0.0000000000000000
    -4.1247592315440622    0.0000000000000000    7.4933079104655302
   H    O 
    24    12
Direct
  0.7533858627974206  0.8582252738031144  0.0823714640923759
  0.2466141372020820  0.3582252738033205  0.9176285359076738
  0.6175320938832988  0.0566208072046503  0.9774027356972086
  0.3824679061161968  0.5566208072046717  0.0225972643028624
  0.3856791623168284  0.8019929487856632  0.2158243345516490
  0.6143208376834772  0.3019929487858621  0.7841756654479533
  0.5427711530674320  0.8441199875229179  0.1630797449277059
  0.4572288469326747  0.3441199875232164  0.8369202550723013
  0.3291593581574217  0.1318149020573113  0.6069367619563029
  0.6708406418427773  0.6318149020576097  0.3930632380437966
  0.1741708309205026  0.9611015873108314  0.5736509852693885
  0.8258291690790994  0.4611015873105543  0.4263490147302136
  0.0951814999283198  0.0183214577115285  0.8282730869781539
  0.9048185000716944  0.5183214577115001  0.1717269130215475
  0.1362517750733855  0.0683529889945085  0.0243621390144098
  0.8637482249264227  0.5683529889944872  0.9756378609856186
  0.8251771620271643  0.1848837129388098  0.2367250921601330
  0.1748228379724377  0.6848837129385043  0.7632749078396680
  0.0250278605304787  0.2338186514444202  0.3885222820018409
  0.9749721394694787  0.7338186514441289  0.6114777179986565
  0.0918832477816998  0.7987421067500695  0.1708169528442228
  0.9081167522183144  0.2987421067496645  0.8291830471558767
  0.2109034283859428  0.9665220681314449  0.3247623997918557
  0.7890965716142633  0.4665220681317647  0.6752376002081373
  0.6811872116297893  0.9801829557424282  0.0935541214003658
  0.3188127883699052  0.4801829557423075  0.9064458785996342
  0.4865522307795332  0.7321833765110856  0.2051850108335381
  0.5134477692204598  0.2321833765114834  0.7948149891661636
  0.2145929041983612  0.0677210784693242  0.5125131729894383
  0.7854070958012409  0.5677210784693100  0.4874868270109597
  0.1037001749171301  0.1396063543597569  0.9092826440859536
  0.8962998250828415  0.6396063543599559  0.0907173559144728
  0.9067043235452075  0.3050974682979848  0.3107843408889377
  0.0932956764545723  0.8050974682975869  0.6892156591112683
  0.1938189717724673  0.9050822739640770  0.2109626207008760
  0.8061810282276322  0.4050822739638284  0.7890373792988183
 
  0.00000000E+00  0.00000000E+00  0.00000000E+00
  0.00000000E+00  0.00000000E+00  0.00000000E+00
  0.00000000E+00  0.00000000E+00  0.00000000E+00
  0.00000000E+00  0.00000000E+00  0.00000000E+00
  0.00000000E+00  0.00000000E+00  0.00000000E+00
  0.00000000E+00  0.00000000E+00  0.00000000E+00
  0.00000000E+00  0.00000000E+00  0.00000000E+00
  0.00000000E+00  0.00000000E+00  0.00000000E+00
  0.00000000E+00  0.00000000E+00  0.00000000E+00
  0.00000000E+00  0.00000000E+00  0.00000000E+00
  0.00000000E+00  0.00000000E+00  0.00000000E+00
  0.00000000E+00  0.00000000E+00  0.00000000E+00
  0.00000000E+00  0.00000000E+00  0.00000000E+00
  0.00000000E+00  0.00000000E+00  0.00000000E+00
  0.00000000E+00  0.00000000E+00  0.00000000E+00
  0.00000000E+00  0.00000000E+00  0.00000000E+00
  0.00000000E+00  0.00000000E+00  0.00000000E+00
  0.00000000E+00  0.00000000E+00  0.00000000E+00
  0.00000000E+00  0.00000000E+00  0.00000000E+00
  0.00000000E+00  0.00000000E+00  0.00000000E+00
  0.00000000E+00  0.00000000E+00  0.00000000E+00
  0.00000000E+00  0.00000000E+00  0.00000000E+00
  0.00000000E+00  0.00000000E+00  0.00000000E+00
  0.00000000E+00  0.00000000E+00  0.00000000E+00
  0.00000000E+00  0.00000000E+00  0.00000000E+00
  0.00000000E+00  0.00000000E+00  0.00000000E+00
  0.00000000E+00  0.00000000E+00  0.00000000E+00
  0.00000000E+00  0.00000000E+00  0.00000000E+00
  0.00000000E+00  0.00000000E+00  0.00000000E+00
  0.00000000E+00  0.00000000E+00  0.00000000E+00
  0.00000000E+00  0.00000000E+00  0.00000000E+00
  0.00000000E+00  0.00000000E+00  0.00000000E+00
  0.00000000E+00  0.00000000E+00  0.00000000E+00
  0.00000000E+00  0.00000000E+00  0.00000000E+00
  0.00000000E+00  0.00000000E+00  0.00000000E+00
  0.00000000E+00  0.00000000E+00  0.00000000E+00
