H2O                                     
   1.00000000000000     
     5.6497085065844548    0.0945891546513840    0.2140692313225699
    -3.4300903632386519    5.3813258405181150   -0.1660821834773858
    -4.0232928853446817   -0.8804911874543381    3.8843932178224434
   H    O 
    12     6
Direct
  0.0187313514052025  0.2933649920569759  0.9292058529815581
  0.3547959748501148  0.2740293849024251  0.2573969743847423
  0.0068518533180111  0.7830381070040645  0.1262360375906356
  0.6051557101580776  0.6171751632400956  0.0116458968632178
  0.5636757873912871  0.8054321480081518  0.5826611066562086
  0.6517645938592722  0.0099155930671722  0.3941571175180209
  0.3334939239064675  0.2679188022715162  0.6136585882306070
  0.3598250927285809  0.0284961273683287  0.6809324209479185
  0.1681270600319178  0.7116446704483332  0.8870626671280728
  0.8246621817496727  0.7114759362300140  0.5345942436185271
  0.9796028935207871  0.4463702646586227  0.4693077254077789
  0.7948763683601073  0.2989377388217577  0.1445146934700931
  0.2728295517778636  0.3332840325362196  0.0535976717685881
  0.7548076141026006  0.7601545817970266  0.9741092407602240
  0.4787794852129776  0.8333470977512656  0.3632881471970367
  0.5074849855298477  0.2099161380149643  0.7056654693321543
  0.0568222661333501  0.7120963225333728  0.6596237106862907
  0.9440933059632879  0.3076528992890237  0.3826324354581435
 
  0.00000000E+00  0.00000000E+00  0.00000000E+00
  0.00000000E+00  0.00000000E+00  0.00000000E+00
  0.00000000E+00  0.00000000E+00  0.00000000E+00
  0.00000000E+00  0.00000000E+00  0.00000000E+00
  0.00000000E+00  0.00000000E+00  0.00000000E+00
  0.00000000E+00  0.00000000E+00  0.00000000E+00
  0.00000000E+00  0.00000000E+00  0.00000000E+00
  0.00000000E+00  0.00000000E+00  0.00000000E+00
  0.00000000E+00  0.00000000E+00  0.00000000E+00
  0.00000000E+00  0.00000000E+00  0.00000000E+00
  0.00000000E+00  0.00000000E+00  0.00000000E+00
  0.00000000E+00  0.00000000E+00  0.00000000E+00
  0.00000000E+00  0.00000000E+00  0.00000000E+00
  0.00000000E+00  0.00000000E+00  0.00000000E+00
  0.00000000E+00  0.00000000E+00  0.00000000E+00
  0.00000000E+00  0.00000000E+00  0.00000000E+00
  0.00000000E+00  0.00000000E+00  0.00000000E+00
  0.00000000E+00  0.00000000E+00  0.00000000E+00
