H2O                                     
   1.00000000000000     
     4.2672783114889841    0.0000000000000000    0.0560746645671928
     0.0000000000000000   11.3115877871778157    0.0000000000000000
    -0.8568003740662997    0.0000000000000000    6.3360473526227095
   H    O 
    24    12
Direct
  0.2382389414584956  0.9753284812227933  0.0302285819495846
  0.7617610585416110  0.4753284812232124  0.9697714180503727
  0.3620650358311076  0.0709779071094941  0.8819560672782824
  0.6379349641686012  0.5709779071094797  0.1180439327220090
  0.8596703193458992  0.1219837250651404  0.9014625003122262
  0.1403296806542997  0.6219837250654389  0.0985374996881716
  0.6513857043572999  0.2057271290405968  0.0283920391167611
  0.3486142956427000  0.7057271290404903  0.9716079608832034
  0.0398116995536975  0.4796954359652819  0.3779373054086839
  0.9601883004462741  0.9796954359656727  0.6220626945916145
  0.9355216143831688  0.4456182385681484  0.5958154016838441
  0.0644783856168880  0.9456182385676510  0.4041845983166533
  0.0604589774161476  0.1360608579253599  0.4676872037156261
  0.9395410225838310  0.6360608579254595  0.5323127962844735
  0.2753011469799674  0.2384331833893826  0.3934831340023929
  0.7246988530197341  0.7384331833889846  0.6065168659975073
  0.7822738304050866  0.2659277121717650  0.3408146001965150
  0.2177261695953041  0.7659277121713670  0.6591853998036838
  0.6109032221182727  0.3684181412109238  0.2089814140233243
  0.3890967778817414  0.8684181412112151  0.7910185859765761
  0.4439177543939923  0.4223413389076643  0.6553663823540881
  0.5560822456056098  0.9223413389072664  0.3446336176459190
  0.6403065950560298  0.3125289064718557  0.7549234818912511
  0.3596934049439703  0.8125289064714649  0.2450765181091397
  0.1897193576444445  0.0135156336248050  0.8921414185754718
  0.8102806423557615  0.5135156336248193  0.1078585814241301
  0.6644075804783766  0.1675474015346266  0.8912677667331385
  0.3355924195212256  0.6675474015343282  0.1087322332665631
  0.0968524613988993  0.4891703635291502  0.5285576059658118
  0.9031475386011006  0.9891703635288517  0.4714423940344937
  0.1000257004882169  0.2210239184050272  0.4736009742228210
  0.8999742995117973  0.7210239184053256  0.5263990257767812
  0.5846835261393167  0.2863578391392396  0.2469358068106343
  0.4153164738611876  0.7863578391397512  0.7530641931889606
  0.6452179195972761  0.3980137867187186  0.7341129609709267
  0.3547820804022195  0.8980137867185198  0.2658870390289737
 
  0.00000000E+00  0.00000000E+00  0.00000000E+00
  0.00000000E+00  0.00000000E+00  0.00000000E+00
  0.00000000E+00  0.00000000E+00  0.00000000E+00
  0.00000000E+00  0.00000000E+00  0.00000000E+00
  0.00000000E+00  0.00000000E+00  0.00000000E+00
  0.00000000E+00  0.00000000E+00  0.00000000E+00
  0.00000000E+00  0.00000000E+00  0.00000000E+00
  0.00000000E+00  0.00000000E+00  0.00000000E+00
  0.00000000E+00  0.00000000E+00  0.00000000E+00
  0.00000000E+00  0.00000000E+00  0.00000000E+00
  0.00000000E+00  0.00000000E+00  0.00000000E+00
  0.00000000E+00  0.00000000E+00  0.00000000E+00
  0.00000000E+00  0.00000000E+00  0.00000000E+00
  0.00000000E+00  0.00000000E+00  0.00000000E+00
  0.00000000E+00  0.00000000E+00  0.00000000E+00
  0.00000000E+00  0.00000000E+00  0.00000000E+00
  0.00000000E+00  0.00000000E+00  0.00000000E+00
  0.00000000E+00  0.00000000E+00  0.00000000E+00
  0.00000000E+00  0.00000000E+00  0.00000000E+00
  0.00000000E+00  0.00000000E+00  0.00000000E+00
  0.00000000E+00  0.00000000E+00  0.00000000E+00
  0.00000000E+00  0.00000000E+00  0.00000000E+00
  0.00000000E+00  0.00000000E+00  0.00000000E+00
  0.00000000E+00  0.00000000E+00  0.00000000E+00
  0.00000000E+00  0.00000000E+00  0.00000000E+00
  0.00000000E+00  0.00000000E+00  0.00000000E+00
  0.00000000E+00  0.00000000E+00  0.00000000E+00
  0.00000000E+00  0.00000000E+00  0.00000000E+00
  0.00000000E+00  0.00000000E+00  0.00000000E+00
  0.00000000E+00  0.00000000E+00  0.00000000E+00
  0.00000000E+00  0.00000000E+00  0.00000000E+00
  0.00000000E+00  0.00000000E+00  0.00000000E+00
  0.00000000E+00  0.00000000E+00  0.00000000E+00
  0.00000000E+00  0.00000000E+00  0.00000000E+00
  0.00000000E+00  0.00000000E+00  0.00000000E+00
  0.00000000E+00  0.00000000E+00  0.00000000E+00
