H2O                                     
   1.00000000000000     
     8.8549174303312448   -0.0281679156653452   -0.0042474118801921
    -0.9556327505932396    8.8298444050248612   -0.0037392046697209
    -3.9434098175887309   -4.4202221807852418    9.6617943507989406
   H    O 
    44    22
Direct
  0.3748426172567303  0.8365682800337729  0.2507887425188233
  0.2873651704128707  0.6439289106220840  0.1922546580682546
  0.5195117145187109  0.3030110548247882  0.7897568049019518
  0.6104403280731570  0.1590974776954303  0.7496998731529981
  0.1091170303492846  0.4025806535966371  0.3446653872696177
  0.0520858264330753  0.4038512636522786  0.1964991850221414
  0.8850269976003100  0.5983286116558822  0.6542713025432396
  0.9383406126852151  0.5981049365383340  0.8020707336142586
  0.2288851523219648  0.0246659839034176  0.2136556936501522
  0.3988894982822578  0.1140602934762472  0.3474734922074931
  0.5884141476945994  0.8847143429907435  0.6540810805356008
  0.5936469598471951  0.9413322951819487  0.8041380777525295
  0.8327173725756513  0.3815699997794331  0.2504614934949848
  0.6399031861136335  0.2939610128983258  0.1957043413034503
  0.1600293734364550  0.6154742636639140  0.7492549667185332
  0.3520722105501790  0.7045905243352603  0.8051979522030057
  0.4295246694687108  0.0832157893308494  0.1549378732340521
  0.3796043944636971  0.1629271558626915  0.0479517159786386
  0.5006656411274478  0.9661712720949446  0.9744468137508787
  0.6102744276350884  0.8388853112227984  0.9556403668404723
  0.0256776110505236  0.4931453295222987  0.0244191498683523
  0.1550625224305300  0.3855901728754008  0.0438356702403920
  0.7758129652611604  0.4272108557229738  0.8459690294930368
  0.8305971918282060  0.6152117269654878  0.9520799828526536
  0.2663556755253570  0.5220725927973551  0.5878782743799966
  0.3474982573008454  0.4026717055392236  0.5030883327755458
  0.7267848926852528  0.4767098495572781  0.4121509390483973
  0.6456388918520668  0.5964983492361269  0.4968571938214629
  0.5321205159421232  0.2705135958180524  0.5896409396889316
  0.5819820996917687  0.3604417413028514  0.5043774822893111
  0.4607156024204220  0.7279749799326227  0.4100218624190972
  0.4112667857808130  0.6383562282968961  0.4953488683606995
  0.0189689628900829  0.1463782649392888  0.1761553221179707
  0.0061113377135268  0.0122598719510013  0.0360672320070505
  0.9722034170765905  0.8549043556251095  0.8177835486299015
  0.8509996101065261  0.9727701029015634  0.8170164029765251
  0.5334033310450219  0.6581998942721995  0.1831378189570431
  0.6537933839620780  0.5385175116698477  0.1834144997970592
  0.3432838765235923  0.4656336653891487  0.8226454643774682
  0.4708564038240871  0.4745380038386578  0.9634903875442028
  0.1277223640403459  0.1318416396276220  0.9009781491098796
  0.2653628385641686  0.2704398754116519  0.9016293860189457
  0.8626197474901325  0.8697119667269392  0.0992472688432358
  0.7264749333486783  0.7308475867868164  0.1000929146812377
  0.3947710294191680  0.7295139673370364  0.2505930724813716
  0.5979369439105929  0.2676946476673503  0.7486559518964172
  0.0184507598903132  0.3522019036459328  0.2507484187359038
  0.9751240843956128  0.6485828892419441  0.7485026422531014
  0.3467371513214911  0.0238195653805526  0.2532538191468862
  0.6432965337144646  0.9744031979896191  0.7484294046575158
  0.7256958271625922  0.4012124487205372  0.2516531264203175
  0.2674797396642841  0.5964581159582889  0.7486460767464855
  0.4694619980740350  0.1220284209497494  0.0968314999775362
  0.5201661656441615  0.8773672343489047  0.9041281014776568
  0.1156040954750358  0.4753638163881433  0.0949146128098922
  0.8721790557713969  0.5263710438628638  0.9024206761449884
  0.2785658833970433  0.4819236847043742  0.4996359326291921
  0.7144522297665422  0.5170605417817866  0.5003296355983153
  0.4908957936302613  0.2836246848168658  0.5020518367787231
  0.5024989325307118  0.7149846396262396  0.4977099813683071
  0.0260592352870598  0.0316685332776635  0.1318413788960011
  0.9670936284198248  0.9701671239987868  0.8625423137394921
  0.6033852524919722  0.6078188897171698  0.1378768948599709
  0.3966952023131763  0.3968141584154428  0.8675381409538451
  0.2244725309015090  0.2299536495030372  0.9580473555974461
  0.7662873776184973  0.7715575426016377  0.0430714167984680
 
  0.00000000E+00  0.00000000E+00  0.00000000E+00
  0.00000000E+00  0.00000000E+00  0.00000000E+00
  0.00000000E+00  0.00000000E+00  0.00000000E+00
  0.00000000E+00  0.00000000E+00  0.00000000E+00
  0.00000000E+00  0.00000000E+00  0.00000000E+00
  0.00000000E+00  0.00000000E+00  0.00000000E+00
  0.00000000E+00  0.00000000E+00  0.00000000E+00
  0.00000000E+00  0.00000000E+00  0.00000000E+00
  0.00000000E+00  0.00000000E+00  0.00000000E+00
  0.00000000E+00  0.00000000E+00  0.00000000E+00
  0.00000000E+00  0.00000000E+00  0.00000000E+00
  0.00000000E+00  0.00000000E+00  0.00000000E+00
  0.00000000E+00  0.00000000E+00  0.00000000E+00
  0.00000000E+00  0.00000000E+00  0.00000000E+00
  0.00000000E+00  0.00000000E+00  0.00000000E+00
  0.00000000E+00  0.00000000E+00  0.00000000E+00
  0.00000000E+00  0.00000000E+00  0.00000000E+00
  0.00000000E+00  0.00000000E+00  0.00000000E+00
  0.00000000E+00  0.00000000E+00  0.00000000E+00
  0.00000000E+00  0.00000000E+00  0.00000000E+00
  0.00000000E+00  0.00000000E+00  0.00000000E+00
  0.00000000E+00  0.00000000E+00  0.00000000E+00
  0.00000000E+00  0.00000000E+00  0.00000000E+00
  0.00000000E+00  0.00000000E+00  0.00000000E+00
  0.00000000E+00  0.00000000E+00  0.00000000E+00
  0.00000000E+00  0.00000000E+00  0.00000000E+00
  0.00000000E+00  0.00000000E+00  0.00000000E+00
  0.00000000E+00  0.00000000E+00  0.00000000E+00
  0.00000000E+00  0.00000000E+00  0.00000000E+00
  0.00000000E+00  0.00000000E+00  0.00000000E+00
  0.00000000E+00  0.00000000E+00  0.00000000E+00
  0.00000000E+00  0.00000000E+00  0.00000000E+00
  0.00000000E+00  0.00000000E+00  0.00000000E+00
  0.00000000E+00  0.00000000E+00  0.00000000E+00
  0.00000000E+00  0.00000000E+00  0.00000000E+00
  0.00000000E+00  0.00000000E+00  0.00000000E+00
  0.00000000E+00  0.00000000E+00  0.00000000E+00
  0.00000000E+00  0.00000000E+00  0.00000000E+00
  0.00000000E+00  0.00000000E+00  0.00000000E+00
  0.00000000E+00  0.00000000E+00  0.00000000E+00
  0.00000000E+00  0.00000000E+00  0.00000000E+00
  0.00000000E+00  0.00000000E+00  0.00000000E+00
  0.00000000E+00  0.00000000E+00  0.00000000E+00
  0.00000000E+00  0.00000000E+00  0.00000000E+00
  0.00000000E+00  0.00000000E+00  0.00000000E+00
  0.00000000E+00  0.00000000E+00  0.00000000E+00
  0.00000000E+00  0.00000000E+00  0.00000000E+00
  0.00000000E+00  0.00000000E+00  0.00000000E+00
  0.00000000E+00  0.00000000E+00  0.00000000E+00
  0.00000000E+00  0.00000000E+00  0.00000000E+00
  0.00000000E+00  0.00000000E+00  0.00000000E+00
  0.00000000E+00  0.00000000E+00  0.00000000E+00
  0.00000000E+00  0.00000000E+00  0.00000000E+00
  0.00000000E+00  0.00000000E+00  0.00000000E+00
  0.00000000E+00  0.00000000E+00  0.00000000E+00
  0.00000000E+00  0.00000000E+00  0.00000000E+00
  0.00000000E+00  0.00000000E+00  0.00000000E+00
  0.00000000E+00  0.00000000E+00  0.00000000E+00
  0.00000000E+00  0.00000000E+00  0.00000000E+00
  0.00000000E+00  0.00000000E+00  0.00000000E+00
  0.00000000E+00  0.00000000E+00  0.00000000E+00
  0.00000000E+00  0.00000000E+00  0.00000000E+00
  0.00000000E+00  0.00000000E+00  0.00000000E+00
  0.00000000E+00  0.00000000E+00  0.00000000E+00
  0.00000000E+00  0.00000000E+00  0.00000000E+00
  0.00000000E+00  0.00000000E+00  0.00000000E+00
