H2O                                     
   1.00000000000000     
     5.9385307640532021   -0.0021229456409318    0.0530384427056965
    -1.9590652078483950    6.2973057357866979   -0.0123662952610761
     6.1271544847512747   -0.1805350477539903   10.8894226897771258
   H    O 
    32    16
Direct
  0.3808886764744978  0.9654455275736268  0.7992665554284762
  0.6417243322427779  0.0793557483360293  0.8119590179059764
  0.6203919379514501  0.0473635205985165  0.2275166216583236
  0.3567212143897537  0.9338005012234680  0.2169059656464090
  0.5247153399339792  0.7160349621003992  0.2622675921618123
  0.6476982076207437  0.5925554525945563  0.3095283519009122
  0.4776592183147309  0.2986662009347171  0.7659622476330102
  0.6127726114614683  0.5348978257555499  0.7289689286501936
  0.1227939002239523  0.9809026118852384  0.1244171438971843
  0.2158021105212131  0.7599865960881362  0.0773947039409194
  0.8633076363644988  0.0201778767410040  0.9051896308483217
  0.5652530508841674  0.0315208449710584  0.9932649445809186
  0.0443320875610775  0.2920098461853526  0.1105173295119881
  0.9838905433819771  0.2414712371655107  0.2414841786172578
  0.9519478978836791  0.7165905030851477  0.9157951139202641
  0.0138412037743694  0.7710231706571122  0.7854926914310052
  0.3018990747782191  0.4042723126978064  0.6717523043779414
  0.2396498727183917  0.2501606989465158  0.5738661921378541
  0.7610406201503448  0.7625436922215907  0.4547738144248505
  0.5592805134997756  0.5381907426897399  0.4928594348041918
  0.6937574072700897  0.5207109025839851  0.0994298075928963
  0.7594887148652624  0.3670149449696058  0.9818123076917822
  0.3052929792846908  0.4874376243131343  0.9282396696723476
  0.4326197663312347  0.5092215804475385  0.0138529999028494
  0.2386819823840748  0.4203402469197309  0.3279157961901051
  0.9499335258603195  0.4608578960060400  0.3901264853966849
  0.0540041587160970  0.5603255631901498  0.6348447404684087
  0.0499386587480340  0.7822549838981002  0.6046343010106922
  0.7056543156124105  0.0397715114955963  0.5983607256436676
  0.8710907331431597  0.1411371551642223  0.4641545879918056
  0.3114595820114979  0.9830962240053789  0.4265473012637567
  0.4450547467900919  0.0028173049466807  0.5102004998164226
  0.5584877944072310  0.0659798721270554  0.7593424322918507
  0.4424502929310694  0.9474348392254410  0.2685322893188307
  0.5650092643579103  0.5789448509187064  0.2566008020751226
  0.4355618246668302  0.4340787241058559  0.7692199940252604
  0.2581120213145625  0.9061463991246437  0.1067744308134426
  0.7377075287947270  0.1076154706363595  0.9270578995601131
  0.9496770902796481  0.1793056725462501  0.1721406252066858
  0.0478534867704903  0.8309557337502664  0.8551797344204329
  0.2571025718537508  0.3975904789049107  0.6049584987145847
  0.7324597488238719  0.6137512854580117  0.4266646199815947
  0.7275736899512310  0.5075607636605769  0.0136736465956964
  0.2651453731161251  0.5074738391185404  0.0150266137698473
  0.0466323343166428  0.3486231350358932  0.3619164023867559
  0.9505290826556474  0.6680114255374217  0.6653587237279927
  0.7384018991370167  0.0165961775939970  0.5128569134906157
  0.2753493754728723  0.9986755218643848  0.5127643875028081
 
  0.00000000E+00  0.00000000E+00  0.00000000E+00
  0.00000000E+00  0.00000000E+00  0.00000000E+00
  0.00000000E+00  0.00000000E+00  0.00000000E+00
  0.00000000E+00  0.00000000E+00  0.00000000E+00
  0.00000000E+00  0.00000000E+00  0.00000000E+00
  0.00000000E+00  0.00000000E+00  0.00000000E+00
  0.00000000E+00  0.00000000E+00  0.00000000E+00
  0.00000000E+00  0.00000000E+00  0.00000000E+00
  0.00000000E+00  0.00000000E+00  0.00000000E+00
  0.00000000E+00  0.00000000E+00  0.00000000E+00
  0.00000000E+00  0.00000000E+00  0.00000000E+00
  0.00000000E+00  0.00000000E+00  0.00000000E+00
  0.00000000E+00  0.00000000E+00  0.00000000E+00
  0.00000000E+00  0.00000000E+00  0.00000000E+00
  0.00000000E+00  0.00000000E+00  0.00000000E+00
  0.00000000E+00  0.00000000E+00  0.00000000E+00
  0.00000000E+00  0.00000000E+00  0.00000000E+00
  0.00000000E+00  0.00000000E+00  0.00000000E+00
  0.00000000E+00  0.00000000E+00  0.00000000E+00
  0.00000000E+00  0.00000000E+00  0.00000000E+00
  0.00000000E+00  0.00000000E+00  0.00000000E+00
  0.00000000E+00  0.00000000E+00  0.00000000E+00
  0.00000000E+00  0.00000000E+00  0.00000000E+00
  0.00000000E+00  0.00000000E+00  0.00000000E+00
  0.00000000E+00  0.00000000E+00  0.00000000E+00
  0.00000000E+00  0.00000000E+00  0.00000000E+00
  0.00000000E+00  0.00000000E+00  0.00000000E+00
  0.00000000E+00  0.00000000E+00  0.00000000E+00
  0.00000000E+00  0.00000000E+00  0.00000000E+00
  0.00000000E+00  0.00000000E+00  0.00000000E+00
  0.00000000E+00  0.00000000E+00  0.00000000E+00
  0.00000000E+00  0.00000000E+00  0.00000000E+00
  0.00000000E+00  0.00000000E+00  0.00000000E+00
  0.00000000E+00  0.00000000E+00  0.00000000E+00
  0.00000000E+00  0.00000000E+00  0.00000000E+00
  0.00000000E+00  0.00000000E+00  0.00000000E+00
  0.00000000E+00  0.00000000E+00  0.00000000E+00
  0.00000000E+00  0.00000000E+00  0.00000000E+00
  0.00000000E+00  0.00000000E+00  0.00000000E+00
  0.00000000E+00  0.00000000E+00  0.00000000E+00
  0.00000000E+00  0.00000000E+00  0.00000000E+00
  0.00000000E+00  0.00000000E+00  0.00000000E+00
  0.00000000E+00  0.00000000E+00  0.00000000E+00
  0.00000000E+00  0.00000000E+00  0.00000000E+00
  0.00000000E+00  0.00000000E+00  0.00000000E+00
  0.00000000E+00  0.00000000E+00  0.00000000E+00
  0.00000000E+00  0.00000000E+00  0.00000000E+00
  0.00000000E+00  0.00000000E+00  0.00000000E+00
