H2O                                     
   1.00000000000000     
     6.5654033835833383    0.0000000000000000    0.0000000000000000
     0.0000000000000000    6.5654033835833383   -0.0000000000000000
     0.0000000000000000   -0.0000000000000000    6.6844211677347172
   H    O 
    24    12
Direct
  0.5157325115587397  0.1659438117680445  0.7094249718524709
  0.4842674884416653  0.8340561882318559  0.2094249718528688
  0.8340561882318559  0.4842674884416653  0.7905750281471312
  0.9842674884416653  0.6659438117681441  0.5405750281471312
  0.0157325115583347  0.3340561882318560  0.0405750281471312
  0.1659438117681440  0.5157325115583347  0.2905750281471312
  0.3340561882318560  0.0157325115583347  0.9594249718528688
  0.6659438117681441  0.9842674884416653  0.4594249718528688
  0.3859650869152277  0.3476507786012000  0.7937359414722048
  0.6140349130852696  0.6523492213982955  0.2937359414724962
  0.6523492213982955  0.6140349130852696  0.7062640585274967
  0.1140349130852696  0.8476507786017045  0.4562640585275038
  0.8859650869147304  0.1523492213982956  0.9562640585274967
  0.3476507786017045  0.3859650869147304  0.2062640585275038
  0.1523492213982956  0.8859650869147304  0.0437359414724962
  0.8476507786017045  0.1140349130852696  0.5437359414725033
  0.7032986466183591  0.3588379805807020  0.1410103632667828
  0.2967013533811365  0.6411620194190919  0.6410103632662854
  0.6411620194190919  0.2967013533811365  0.3589896367337146
  0.7967013533811365  0.8588379805809081  0.1089896367337146
  0.2032986466188635  0.1411620194190919  0.6089896367337146
  0.3588379805809081  0.7032986466188635  0.8589896367337146
  0.1411620194190919  0.2032986466188635  0.3910103632662854
  0.8588379805809081  0.7967013533811365  0.8910103632662854
  0.3911140170479475  0.1985253242565801  0.7842491017522439
  0.6088859829524503  0.8014746757436259  0.2842491017523435
  0.8014746757436259  0.6088859829524503  0.7157508982476566
  0.1088859829524504  0.6985253242563741  0.4657508982476565
  0.8911140170475497  0.3014746757436188  0.9657508982476566
  0.1985253242563812  0.3911140170475496  0.2157508982476566
  0.3014746757436188  0.8911140170475497  0.0342491017523434
  0.6985253242563741  0.1088859829524504  0.5342491017523434
  0.6082943203759170  0.3917056796240831  0.2500000000000000
  0.3917056796241826  0.6082943203758175  0.7500000000000000
  0.8917056796241825  0.8917056796241825 -0.0000000000000000
  0.1082943203758175  0.1082943203758175  0.5000000000000000
 
  0.00000000E+00  0.00000000E+00  0.00000000E+00
  0.00000000E+00  0.00000000E+00  0.00000000E+00
  0.00000000E+00  0.00000000E+00  0.00000000E+00
  0.00000000E+00  0.00000000E+00  0.00000000E+00
  0.00000000E+00  0.00000000E+00  0.00000000E+00
  0.00000000E+00  0.00000000E+00  0.00000000E+00
  0.00000000E+00  0.00000000E+00  0.00000000E+00
  0.00000000E+00  0.00000000E+00  0.00000000E+00
  0.00000000E+00  0.00000000E+00  0.00000000E+00
  0.00000000E+00  0.00000000E+00  0.00000000E+00
  0.00000000E+00  0.00000000E+00  0.00000000E+00
  0.00000000E+00  0.00000000E+00  0.00000000E+00
  0.00000000E+00  0.00000000E+00  0.00000000E+00
  0.00000000E+00  0.00000000E+00  0.00000000E+00
  0.00000000E+00  0.00000000E+00  0.00000000E+00
  0.00000000E+00  0.00000000E+00  0.00000000E+00
  0.00000000E+00  0.00000000E+00  0.00000000E+00
  0.00000000E+00  0.00000000E+00  0.00000000E+00
  0.00000000E+00  0.00000000E+00  0.00000000E+00
  0.00000000E+00  0.00000000E+00  0.00000000E+00
  0.00000000E+00  0.00000000E+00  0.00000000E+00
  0.00000000E+00  0.00000000E+00  0.00000000E+00
  0.00000000E+00  0.00000000E+00  0.00000000E+00
  0.00000000E+00  0.00000000E+00  0.00000000E+00
  0.00000000E+00  0.00000000E+00  0.00000000E+00
  0.00000000E+00  0.00000000E+00  0.00000000E+00
  0.00000000E+00  0.00000000E+00  0.00000000E+00
  0.00000000E+00  0.00000000E+00  0.00000000E+00
  0.00000000E+00  0.00000000E+00  0.00000000E+00
  0.00000000E+00  0.00000000E+00  0.00000000E+00
  0.00000000E+00  0.00000000E+00  0.00000000E+00
  0.00000000E+00  0.00000000E+00  0.00000000E+00
  0.00000000E+00  0.00000000E+00  0.00000000E+00
  0.00000000E+00  0.00000000E+00  0.00000000E+00
  0.00000000E+00  0.00000000E+00  0.00000000E+00
  0.00000000E+00  0.00000000E+00  0.00000000E+00
