H2O                                     
   1.00000000000000     
    10.7475327795829898   -0.0000000445863719    0.0000000000000000
    -0.0000000223513542    5.4993123638114332    0.0000000000000000
     0.0000000000000000    0.0000000000000000    6.2665679154731269
   H    O 
    32    16
Direct
  0.0677825018553026  0.7964346624781722  0.9695171858542037
  0.9322174981446476  0.2035653375216289  0.4695171858542819
  0.5677825044530185  0.2035653496248363  0.9695171712128879
  0.4322174955469815  0.7964346503751638  0.4695171712129022
  0.0076176700157220  0.5513645331550294  0.0344197179330554
  0.9923823299842709  0.4486354668453685  0.5344197179330483
  0.5076176599784603  0.4486354777147468  0.0344197197954306
  0.4923823400215397  0.5513645222852532  0.5344197197954306
  0.0006046089192494  0.2375891364349146  0.8277094308526707
  0.9993953910803172  0.7624108635648864  0.3277094308529620
  0.5006046165312156  0.7624108566919273  0.8277094077848866
  0.4993953834687774  0.2375891433080655  0.3277094077848794
  0.9346258191961553  0.1988570052064727  0.0558118050749102
  0.0653741808036671  0.8011429947940247  0.5558118050748746
  0.4346258187669378  0.8011430179382704  0.0558117998590433
  0.5653741812330694  0.1988569820617297  0.5558117998590433
  0.2590859385655352  0.6845724099959766  0.2584936292784129
  0.7409140614340598  0.3154275900043219  0.7584936292785195
  0.7590859347290734  0.3154275975862961  0.2584936355152728
  0.2409140652709267  0.6845724024137040  0.7584936355152728
  0.2678190043308206  0.9732689440294202  0.2646214033162979
  0.7321809956687815  0.0267310559704802  0.7646214033160919
  0.7678190035390628  0.0267310672108613  0.2646214023270093
  0.2321809964609372  0.9732689327891386  0.7646214023270022
  0.6403172186491835  0.7499850049369648  0.3948718561242516
  0.3596827813506175  0.2500149950634472  0.8948718561246424
  0.1403172247114062  0.2500149831560015  0.3948718670983354
  0.8596827752885938  0.7499850168439984  0.8948718670983212
  0.6429099846495094  0.7512998794568527  0.1511411413234980
  0.3570900153499932  0.2487001205427352  0.6511411413231925
  0.1429099851386257  0.2487001243922567  0.1511411546718746
  0.8570900148613743  0.7512998756077433  0.6511411546718675
  0.0024473845275503  0.7284277985478752  0.0596310290500511
  0.9975526154724568  0.2715722014522172  0.5596310290500796
  0.5024473892236694  0.2715722144103851  0.0596310271248782
  0.4975526107763306  0.7284277855896008  0.5596310271248782
  0.0094086022220472  0.2564046269878186  0.9831877915545567
  0.9905913977779529  0.7435953730120748  0.4831877915546350
  0.5094086043700746  0.7435954094564583  0.9831877756914699
  0.4905913956299253  0.2564045905435345  0.4831877756914700
  0.3159258640079007  0.8203119811336003  0.2560249970883379
  0.6840741359921136  0.1796880188659022  0.7560249970879401
  0.8159258690466575  0.1796880041849098  0.2560249943157860
  0.1840741309533352  0.8203119958150901  0.7560249943157932
  0.6983509172514459  0.7490955455241401  0.2748500248954172
  0.3016490827488525  0.2509044544756608  0.7748500248959075
  0.1983509171470672  0.2509044642880713  0.2748500322577412
  0.8016490828529328  0.7490955357119287  0.7748500322577342
 
  0.00000000E+00  0.00000000E+00  0.00000000E+00
  0.00000000E+00  0.00000000E+00  0.00000000E+00
  0.00000000E+00  0.00000000E+00  0.00000000E+00
  0.00000000E+00  0.00000000E+00  0.00000000E+00
  0.00000000E+00  0.00000000E+00  0.00000000E+00
  0.00000000E+00  0.00000000E+00  0.00000000E+00
  0.00000000E+00  0.00000000E+00  0.00000000E+00
  0.00000000E+00  0.00000000E+00  0.00000000E+00
  0.00000000E+00  0.00000000E+00  0.00000000E+00
  0.00000000E+00  0.00000000E+00  0.00000000E+00
  0.00000000E+00  0.00000000E+00  0.00000000E+00
  0.00000000E+00  0.00000000E+00  0.00000000E+00
  0.00000000E+00  0.00000000E+00  0.00000000E+00
  0.00000000E+00  0.00000000E+00  0.00000000E+00
  0.00000000E+00  0.00000000E+00  0.00000000E+00
  0.00000000E+00  0.00000000E+00  0.00000000E+00
  0.00000000E+00  0.00000000E+00  0.00000000E+00
  0.00000000E+00  0.00000000E+00  0.00000000E+00
  0.00000000E+00  0.00000000E+00  0.00000000E+00
  0.00000000E+00  0.00000000E+00  0.00000000E+00
  0.00000000E+00  0.00000000E+00  0.00000000E+00
  0.00000000E+00  0.00000000E+00  0.00000000E+00
  0.00000000E+00  0.00000000E+00  0.00000000E+00
  0.00000000E+00  0.00000000E+00  0.00000000E+00
  0.00000000E+00  0.00000000E+00  0.00000000E+00
  0.00000000E+00  0.00000000E+00  0.00000000E+00
  0.00000000E+00  0.00000000E+00  0.00000000E+00
  0.00000000E+00  0.00000000E+00  0.00000000E+00
  0.00000000E+00  0.00000000E+00  0.00000000E+00
  0.00000000E+00  0.00000000E+00  0.00000000E+00
  0.00000000E+00  0.00000000E+00  0.00000000E+00
  0.00000000E+00  0.00000000E+00  0.00000000E+00
  0.00000000E+00  0.00000000E+00  0.00000000E+00
  0.00000000E+00  0.00000000E+00  0.00000000E+00
  0.00000000E+00  0.00000000E+00  0.00000000E+00
  0.00000000E+00  0.00000000E+00  0.00000000E+00
  0.00000000E+00  0.00000000E+00  0.00000000E+00
  0.00000000E+00  0.00000000E+00  0.00000000E+00
  0.00000000E+00  0.00000000E+00  0.00000000E+00
  0.00000000E+00  0.00000000E+00  0.00000000E+00
  0.00000000E+00  0.00000000E+00  0.00000000E+00
  0.00000000E+00  0.00000000E+00  0.00000000E+00
  0.00000000E+00  0.00000000E+00  0.00000000E+00
  0.00000000E+00  0.00000000E+00  0.00000000E+00
  0.00000000E+00  0.00000000E+00  0.00000000E+00
  0.00000000E+00  0.00000000E+00  0.00000000E+00
  0.00000000E+00  0.00000000E+00  0.00000000E+00
  0.00000000E+00  0.00000000E+00  0.00000000E+00
