H2O                                     
   1.00000000000000     
     4.3563379888988720    0.0000000000000000    0.0000000000000000
     0.0000000000000000    4.3563379888988720    0.0000000000000000
     2.1781689944494360    2.1781689944494360    3.1570850410959475
   H    O 
     4     2
Direct
  0.4654368713544059  0.7840196889860280  0.4319606220279653
  0.5340196889857296  0.3526025066169254  0.9319606220285692
  0.1026025066169254  0.7840196889857296  0.4319606220285692
  0.5340196889857296  0.7154368713545054  0.9319606220285692
  0.3774306220279655  0.8774306220279655  0.2451387559440832
  0.6274306220275676  0.6274306220275676  0.7451387559448790
 
  0.00000000E+00  0.00000000E+00  0.00000000E+00
  0.00000000E+00  0.00000000E+00  0.00000000E+00
  0.00000000E+00  0.00000000E+00  0.00000000E+00
  0.00000000E+00  0.00000000E+00  0.00000000E+00
  0.00000000E+00  0.00000000E+00  0.00000000E+00
  0.00000000E+00  0.00000000E+00  0.00000000E+00
