H2O                                     
   1.00000000000000     
     3.7784763781312178   -2.1815043540406998    0.0000000000000000
     0.0000000000000000    4.3630087080813995    0.0000000000000000
     0.0000000000000000    0.0000000000000000    9.4673398122677259
   H    O 
    12     6
Direct
  0.4779945791319236  0.2655825782900862  0.1411332446886746
  0.7875879991580916  0.5220054208683749  0.4744665780223087
  0.5220054208683749  0.7344174217103117  0.6411332446889730
  0.7344174217103117  0.5220054208683749  0.0255334219776913
  0.2655825782896883  0.4779945791316251  0.5255334219776913
  0.2124120008419084  0.7344174217103117  0.8588667553110270
  0.5220054208683749  0.7875879991580916  0.1922000886443627
  0.7875879991580916  0.2655825782896883  0.3588667553110270
  0.2655825782896883  0.7875879991580916  0.3077999113556373
  0.7344174217103117  0.2124120008419084  0.8077999113556373
  0.4779945791316251  0.2124120008419084  0.6922000886443627
  0.2124120008419084  0.4779945791316251  0.9744665780223087
  0.5275137432938664  0.4724862567062402  0.0833333333333286
  0.9449725134130773  0.4724862567065244  0.4166666666666359
  0.4724862567065244  0.5275137432934685  0.5833333333333002
  0.0550274865869298  0.5275137432934685  0.9166666666666998
  0.4724862567065244  0.9449725134130773  0.2500000000000000
  0.5275137432934685  0.0550274865869298  0.7499999999999645
 
  0.00000000E+00  0.00000000E+00  0.00000000E+00
  0.00000000E+00  0.00000000E+00  0.00000000E+00
  0.00000000E+00  0.00000000E+00  0.00000000E+00
  0.00000000E+00  0.00000000E+00  0.00000000E+00
  0.00000000E+00  0.00000000E+00  0.00000000E+00
  0.00000000E+00  0.00000000E+00  0.00000000E+00
  0.00000000E+00  0.00000000E+00  0.00000000E+00
  0.00000000E+00  0.00000000E+00  0.00000000E+00
  0.00000000E+00  0.00000000E+00  0.00000000E+00
  0.00000000E+00  0.00000000E+00  0.00000000E+00
  0.00000000E+00  0.00000000E+00  0.00000000E+00
  0.00000000E+00  0.00000000E+00  0.00000000E+00
  0.00000000E+00  0.00000000E+00  0.00000000E+00
  0.00000000E+00  0.00000000E+00  0.00000000E+00
  0.00000000E+00  0.00000000E+00  0.00000000E+00
  0.00000000E+00  0.00000000E+00  0.00000000E+00
  0.00000000E+00  0.00000000E+00  0.00000000E+00
  0.00000000E+00  0.00000000E+00  0.00000000E+00
