H2O                                     
   1.00000000000000     
     7.7306054122654935    0.0000000000000000    0.0000000000000000
     0.0000000000000000    7.7306054122654926    0.0000000000000000
     3.8653027061327467    3.8653027061327463    3.2210130041555973
   H    O 
    16     8
Direct
  0.9603368389526589  0.7143253142612529  0.8856136257582450
  0.4643253142608053  0.4040495352882293  0.3856136257591474
  0.7896631610473909  0.5356746857391947  0.6143863742408526
  0.5999389400199526  0.8459504647117707  0.1143863742408526
  0.2856746857391947  0.8459504647117707  0.1143863742408526
  0.5959504647117707  0.5356746857391947  0.6143863742408526
  0.1500610599800474  0.4040495352882293  0.3856136257591474
  0.1500610599800474  0.2103368389526092  0.3856136257591474
  0.5959504647117707  0.8499389400199526  0.6143863742408526
  0.4643253142608053  0.2103368389526092  0.3856136257591474
  0.1540495352882293  0.7143253142608053  0.8856136257591474
  0.1540495352882293  0.4000610599800473  0.8856136257591474
  0.9603368389526091  0.4000610599800473  0.8856136257591474
  0.2856746857391947  0.0396631610473909  0.1143863742408526
  0.5999389400199526  0.0396631610473909  0.1143863742408526
  0.7896631610473909  0.8499389400199526  0.6143863742408526
  0.1109478484544182  0.8327048608753723  0.7781043030911493
  0.5827048608756779  0.3609478484547309  0.2781043030905525
  0.6390521515452691  0.4172951391243221  0.7218956969094475
  0.6108091639662232  0.8890521515452691  0.2218956969094475
  0.1672951391243222  0.8890521515452691  0.2218956969094475
  0.1391908360337697  0.3609478484547309  0.2781043030905525
  0.6390521515452691  0.8608091639662232  0.7218956969094475
  0.1109478484547238  0.3891908360337626  0.7781043030905525
 
  0.00000000E+00  0.00000000E+00  0.00000000E+00
  0.00000000E+00  0.00000000E+00  0.00000000E+00
  0.00000000E+00  0.00000000E+00  0.00000000E+00
  0.00000000E+00  0.00000000E+00  0.00000000E+00
  0.00000000E+00  0.00000000E+00  0.00000000E+00
  0.00000000E+00  0.00000000E+00  0.00000000E+00
  0.00000000E+00  0.00000000E+00  0.00000000E+00
  0.00000000E+00  0.00000000E+00  0.00000000E+00
  0.00000000E+00  0.00000000E+00  0.00000000E+00
  0.00000000E+00  0.00000000E+00  0.00000000E+00
  0.00000000E+00  0.00000000E+00  0.00000000E+00
  0.00000000E+00  0.00000000E+00  0.00000000E+00
  0.00000000E+00  0.00000000E+00  0.00000000E+00
  0.00000000E+00  0.00000000E+00  0.00000000E+00
  0.00000000E+00  0.00000000E+00  0.00000000E+00
  0.00000000E+00  0.00000000E+00  0.00000000E+00
  0.00000000E+00  0.00000000E+00  0.00000000E+00
  0.00000000E+00  0.00000000E+00  0.00000000E+00
  0.00000000E+00  0.00000000E+00  0.00000000E+00
  0.00000000E+00  0.00000000E+00  0.00000000E+00
  0.00000000E+00  0.00000000E+00  0.00000000E+00
  0.00000000E+00  0.00000000E+00  0.00000000E+00
  0.00000000E+00  0.00000000E+00  0.00000000E+00
  0.00000000E+00  0.00000000E+00  0.00000000E+00
