H2O                                     
   1.00000000000000     
     8.3191572510392522    0.0600366700111506    0.3610112719303301
     4.0943202181452465    9.4342788257192058    0.0820887500503376
     5.1836949558146346   -3.1192925709549750   13.2416353311041437
   H    O 
    80    40
Direct
  0.1096624285923802  0.7068985928532826  0.5325212002174385
  0.8903375714076411  0.2931014071467172  0.4674787997822701
  0.9861008790326253  0.6232477313258087  0.5758037261097162
  0.0138991209677158  0.3767522686741910  0.4241962738906815
  0.6933527737478454  0.2842329361344401  0.2882280473451043
  0.3066472262524529  0.7157670638657587  0.7117719526550874
  0.7199406189410291  0.2606334926933839  0.3865010346921596
  0.2800593810590704  0.7393665073070140  0.6134989653081386
  0.6205558120924760  0.6848796335393293  0.0193897696153317
  0.3794441879074245  0.3151203664604646  0.9806102303847251
  0.6773494566441317  0.5212335304357115  0.0151503255274698
  0.3226505433560671  0.4787664695641891  0.9848496744725443
  0.8286609523544314  0.2956333886361851  0.0723089072722546
  0.1713390476455756  0.7043666113640070  0.9276910927277455
  0.9156645946566153  0.4015132884418487  0.0713426427511037
  0.0843354053431716  0.5984867115585493  0.9286573572489033
  0.5787298976051116  0.6426078618348998  0.2834869095903114
  0.4212701023950873  0.3573921381654982  0.7165130904091839
  0.4673971396951442  0.6205610872946842  0.2215911260385297
  0.5326028603052538  0.3794389127056215  0.7784088739617617
  0.3340592237190300  0.2991924667956924  0.3359600415364725
  0.6659407762804583  0.7008075332039024  0.6640399584631297
  0.2305714613685466  0.4608817483266482  0.4020647696769828
  0.7694285386309418  0.5391182516734512  0.5979352303234150
  0.1178572169183280  0.2588626125923286  0.1940233788819478
  0.8821427830821694  0.7411373874077638  0.8059766211176541
  0.3246018564830108  0.1488072701902017  0.1786107538459510
  0.6753981435173869  0.8511927298096988  0.8213892461545463
  0.6679604287508895  0.1433914239885472  0.6732828589958476
  0.3320395712488119  0.8566085760111332  0.3267171410044507
  0.6797425776238879  0.9917411322971403  0.6346473075415634
  0.3202574223758136  0.0082588677028739  0.3653526924580389
  0.7091337115130953  0.1447286153005632  0.1435643266630033
  0.2908662884873808  0.8552713846995363  0.8564356733365064
  0.9201683915408049  0.1061020701908846  0.1325822863962092
  0.0798316084590672  0.8938979298092149  0.8674177136041957
  0.1659194759681254  0.8905760948730707  0.1234160975933410
  0.8340805240317822  0.1094239051270785  0.8765839024062538
  0.1831729059814731  0.0381471709539372  0.1452003597246235
  0.8168270940184275  0.9618528290461198  0.8547996402757888
  0.3717661622836116  0.1630030887061623  0.4299403488892022
  0.6282338377164880  0.8369969112935391  0.5700596511105918
  0.5722152213042462  0.0520023815886888  0.3375064382821220
  0.4277847786962512  0.9479976184112967  0.6624935617175797
  0.6212775030968840  0.9724898824016136  0.1079087132903124
  0.3787224969026043  0.0275101175987488  0.8920912867096520
  0.6587015073402959  0.0651788784745900  0.0292493423373109
  0.3412984926595905  0.9348211215253889  0.9707506576626820
  0.1958624920905793  0.6641303128892987  0.1731694620910337
  0.8041375079096198  0.3358696871111988  0.8268305379091722
  0.1034653544339693  0.7060408914029537  0.0962453578506252
  0.8965346455660521  0.2939591085970392  0.9037546421493962
  0.0888343668916852  0.3033437201953563  0.5443921523471830
  0.9111656331086203  0.6966562798042457  0.4556078476527175
  0.2004381809850140  0.1929338346896818  0.5966629652550587
  0.7995618190149861  0.8070661653105170  0.4033370347453393
  0.3586421314798153  0.2534056021191696  0.8483947178405639
  0.6413578685202915  0.7465943978805389  0.1516052821593295
  0.1618241303372794  0.2644663772289199  0.9365463243943689
  0.8381758696630118  0.7355336227712862  0.0634536756055386
  0.8732558917312666  0.5560140241564229  0.8781994096220990
  0.1267441082691029  0.4439859758435842  0.1218005903776026
  0.0816612969784837  0.5102279565616631  0.7794421140597378
  0.9183387030215375  0.4897720434385359  0.2205578859402693
  0.3046780484128551  0.5192754323499298  0.6405157925364831
  0.6953219515868466  0.4807245676499780  0.3594842074640214
  0.2612090234855791  0.3855785307817402  0.6115312062086983
  0.7387909765143286  0.6144214692185654  0.3884687937908969
  0.4097537289727464  0.4529425354623168  0.1250428136624077
  0.5902462710276516  0.5470574645374843  0.8749571863377840
  0.3193590144414896  0.4692198266134802  0.2453796205454710
  0.6806409855588019  0.5307801733866262  0.7546203794550261
  0.0917748549625677  0.1283594488040971  0.7361010268608152
  0.9082251450372120  0.8716405511959100  0.2638989731395828
  0.1637066441402802  0.0005524144123837  0.6408487602510911
  0.8362933558594285  0.9994475855876449  0.3591512397490085
  0.0130731567396278  0.0590838325460868  0.4065110415400069
  0.9869268432603294  0.9409161674538846  0.5934889584599929
  0.8139124463459577  0.0982878637379831  0.5030586239000787
  0.1860875536541559  0.9017121362619600  0.4969413761002270
  0.0802101510196792  0.6308116364232838  0.5127963590680296
  0.9197898489802782  0.3691883635767304  0.4872036409322687
  0.6494326041739814  0.3344340549084988  0.3587383101797826
  0.3505673958262178  0.6655659450909964  0.6412616898203238
  0.6194875763429322  0.6008501253680323  0.9863415415358100
  0.3805124236573590  0.3991498746317547  0.0136584584642042
  0.8690965858102968  0.3602252427412441  0.0306718465221777
  0.1309034141894900  0.6397747572586565  0.9693281534778578
  0.5060190121960970  0.6892145574163751  0.2446497699205616
  0.4939809878038173  0.3107854425832202  0.7553502300795449
  0.2387738097969453  0.3999644463436982  0.3454781669537461
  0.7612261902031541  0.6000355536564155  0.6545218330460619
  0.1862834220528563  0.1704555053313589  0.2124505094118259
  0.8137165779470372  0.8295444946684351  0.7875494905884656
  0.7517883896281792  0.0505370864004157  0.6199159522835391
  0.2482116103719131  0.9494629135995488  0.3800840477166739
  0.7882830635255741  0.1877272319348913  0.1549326025153944
  0.2117169364742342  0.8122727680647179  0.8450673974848188
  0.1676222364547248  0.9763221178262268  0.0981285121208087
  0.8323777635453750  0.0236778821737803  0.9018714878788074
  0.4336869656580885  0.1158153506860302  0.3561669356633313
  0.5663130343415207  0.8841846493139413  0.6438330643370810
  0.5879177780992103  0.0742063000297270  0.1034208729098263
  0.4120822219003776  0.9257936999702373  0.8965791270901952
  0.1051661330578802  0.7459611302454880  0.1575738323199828
  0.8948338669420913  0.2540388697542204  0.8424261676796192
  0.2074702887030335  0.2641930116694265  0.5543974262377698
  0.7925297112968599  0.7358069883305735  0.4456025737626566
  0.3040695405440749  0.2149437695917063  0.9073971224004427
  0.6959304594559181  0.7850562304083929  0.0926028775993868
  0.9876372222866827  0.5729490319465312  0.8495793434749381
  0.0123627777129974  0.4270509680532697  0.1504206565254599
  0.2778760605365715  0.4376731052850721  0.6623177338024193
  0.7221239394630308  0.5623268947147219  0.3376822661971757
  0.3647649280640232  0.5174423780820540  0.1905532336688074
  0.6352350719355718  0.4825576219174558  0.8094467663313918
  0.2009379786226436  0.0660453186085544  0.6687958141615539
  0.7990620213776548  0.9339546813913889  0.3312041858385457
  0.8688978485334697  0.1194282169372008  0.4354818087128531
  0.1311021514664308  0.8805717830631898  0.5645181912871396
 
  0.00000000E+00  0.00000000E+00  0.00000000E+00
  0.00000000E+00  0.00000000E+00  0.00000000E+00
  0.00000000E+00  0.00000000E+00  0.00000000E+00
  0.00000000E+00  0.00000000E+00  0.00000000E+00
  0.00000000E+00  0.00000000E+00  0.00000000E+00
  0.00000000E+00  0.00000000E+00  0.00000000E+00
  0.00000000E+00  0.00000000E+00  0.00000000E+00
  0.00000000E+00  0.00000000E+00  0.00000000E+00
  0.00000000E+00  0.00000000E+00  0.00000000E+00
  0.00000000E+00  0.00000000E+00  0.00000000E+00
  0.00000000E+00  0.00000000E+00  0.00000000E+00
  0.00000000E+00  0.00000000E+00  0.00000000E+00
  0.00000000E+00  0.00000000E+00  0.00000000E+00
  0.00000000E+00  0.00000000E+00  0.00000000E+00
  0.00000000E+00  0.00000000E+00  0.00000000E+00
  0.00000000E+00  0.00000000E+00  0.00000000E+00
  0.00000000E+00  0.00000000E+00  0.00000000E+00
  0.00000000E+00  0.00000000E+00  0.00000000E+00
  0.00000000E+00  0.00000000E+00  0.00000000E+00
  0.00000000E+00  0.00000000E+00  0.00000000E+00
  0.00000000E+00  0.00000000E+00  0.00000000E+00
  0.00000000E+00  0.00000000E+00  0.00000000E+00
  0.00000000E+00  0.00000000E+00  0.00000000E+00
  0.00000000E+00  0.00000000E+00  0.00000000E+00
  0.00000000E+00  0.00000000E+00  0.00000000E+00
  0.00000000E+00  0.00000000E+00  0.00000000E+00
  0.00000000E+00  0.00000000E+00  0.00000000E+00
  0.00000000E+00  0.00000000E+00  0.00000000E+00
  0.00000000E+00  0.00000000E+00  0.00000000E+00
  0.00000000E+00  0.00000000E+00  0.00000000E+00
  0.00000000E+00  0.00000000E+00  0.00000000E+00
  0.00000000E+00  0.00000000E+00  0.00000000E+00
  0.00000000E+00  0.00000000E+00  0.00000000E+00
  0.00000000E+00  0.00000000E+00  0.00000000E+00
  0.00000000E+00  0.00000000E+00  0.00000000E+00
  0.00000000E+00  0.00000000E+00  0.00000000E+00
  0.00000000E+00  0.00000000E+00  0.00000000E+00
  0.00000000E+00  0.00000000E+00  0.00000000E+00
  0.00000000E+00  0.00000000E+00  0.00000000E+00
  0.00000000E+00  0.00000000E+00  0.00000000E+00
  0.00000000E+00  0.00000000E+00  0.00000000E+00
  0.00000000E+00  0.00000000E+00  0.00000000E+00
  0.00000000E+00  0.00000000E+00  0.00000000E+00
  0.00000000E+00  0.00000000E+00  0.00000000E+00
  0.00000000E+00  0.00000000E+00  0.00000000E+00
  0.00000000E+00  0.00000000E+00  0.00000000E+00
  0.00000000E+00  0.00000000E+00  0.00000000E+00
  0.00000000E+00  0.00000000E+00  0.00000000E+00
  0.00000000E+00  0.00000000E+00  0.00000000E+00
  0.00000000E+00  0.00000000E+00  0.00000000E+00
  0.00000000E+00  0.00000000E+00  0.00000000E+00
  0.00000000E+00  0.00000000E+00  0.00000000E+00
  0.00000000E+00  0.00000000E+00  0.00000000E+00
  0.00000000E+00  0.00000000E+00  0.00000000E+00
  0.00000000E+00  0.00000000E+00  0.00000000E+00
  0.00000000E+00  0.00000000E+00  0.00000000E+00
  0.00000000E+00  0.00000000E+00  0.00000000E+00
  0.00000000E+00  0.00000000E+00  0.00000000E+00
  0.00000000E+00  0.00000000E+00  0.00000000E+00
  0.00000000E+00  0.00000000E+00  0.00000000E+00
  0.00000000E+00  0.00000000E+00  0.00000000E+00
  0.00000000E+00  0.00000000E+00  0.00000000E+00
  0.00000000E+00  0.00000000E+00  0.00000000E+00
  0.00000000E+00  0.00000000E+00  0.00000000E+00
  0.00000000E+00  0.00000000E+00  0.00000000E+00
  0.00000000E+00  0.00000000E+00  0.00000000E+00
  0.00000000E+00  0.00000000E+00  0.00000000E+00
  0.00000000E+00  0.00000000E+00  0.00000000E+00
  0.00000000E+00  0.00000000E+00  0.00000000E+00
  0.00000000E+00  0.00000000E+00  0.00000000E+00
  0.00000000E+00  0.00000000E+00  0.00000000E+00
  0.00000000E+00  0.00000000E+00  0.00000000E+00
  0.00000000E+00  0.00000000E+00  0.00000000E+00
  0.00000000E+00  0.00000000E+00  0.00000000E+00
  0.00000000E+00  0.00000000E+00  0.00000000E+00
  0.00000000E+00  0.00000000E+00  0.00000000E+00
  0.00000000E+00  0.00000000E+00  0.00000000E+00
  0.00000000E+00  0.00000000E+00  0.00000000E+00
  0.00000000E+00  0.00000000E+00  0.00000000E+00
  0.00000000E+00  0.00000000E+00  0.00000000E+00
  0.00000000E+00  0.00000000E+00  0.00000000E+00
  0.00000000E+00  0.00000000E+00  0.00000000E+00
  0.00000000E+00  0.00000000E+00  0.00000000E+00
  0.00000000E+00  0.00000000E+00  0.00000000E+00
  0.00000000E+00  0.00000000E+00  0.00000000E+00
  0.00000000E+00  0.00000000E+00  0.00000000E+00
  0.00000000E+00  0.00000000E+00  0.00000000E+00
  0.00000000E+00  0.00000000E+00  0.00000000E+00
  0.00000000E+00  0.00000000E+00  0.00000000E+00
  0.00000000E+00  0.00000000E+00  0.00000000E+00
  0.00000000E+00  0.00000000E+00  0.00000000E+00
  0.00000000E+00  0.00000000E+00  0.00000000E+00
  0.00000000E+00  0.00000000E+00  0.00000000E+00
  0.00000000E+00  0.00000000E+00  0.00000000E+00
  0.00000000E+00  0.00000000E+00  0.00000000E+00
  0.00000000E+00  0.00000000E+00  0.00000000E+00
  0.00000000E+00  0.00000000E+00  0.00000000E+00
  0.00000000E+00  0.00000000E+00  0.00000000E+00
  0.00000000E+00  0.00000000E+00  0.00000000E+00
  0.00000000E+00  0.00000000E+00  0.00000000E+00
  0.00000000E+00  0.00000000E+00  0.00000000E+00
  0.00000000E+00  0.00000000E+00  0.00000000E+00
  0.00000000E+00  0.00000000E+00  0.00000000E+00
  0.00000000E+00  0.00000000E+00  0.00000000E+00
  0.00000000E+00  0.00000000E+00  0.00000000E+00
  0.00000000E+00  0.00000000E+00  0.00000000E+00
  0.00000000E+00  0.00000000E+00  0.00000000E+00
  0.00000000E+00  0.00000000E+00  0.00000000E+00
  0.00000000E+00  0.00000000E+00  0.00000000E+00
  0.00000000E+00  0.00000000E+00  0.00000000E+00
  0.00000000E+00  0.00000000E+00  0.00000000E+00
  0.00000000E+00  0.00000000E+00  0.00000000E+00
  0.00000000E+00  0.00000000E+00  0.00000000E+00
  0.00000000E+00  0.00000000E+00  0.00000000E+00
  0.00000000E+00  0.00000000E+00  0.00000000E+00
  0.00000000E+00  0.00000000E+00  0.00000000E+00
  0.00000000E+00  0.00000000E+00  0.00000000E+00
  0.00000000E+00  0.00000000E+00  0.00000000E+00
  0.00000000E+00  0.00000000E+00  0.00000000E+00
  0.00000000E+00  0.00000000E+00  0.00000000E+00
