H2O                                     
   1.00000000000000     
     9.7059255295694378   -0.0020464215576408   -0.0001568406366656
    -0.0118491872454632   11.9571356345687754   -0.0026970098137575
     0.0113751145517398   -5.9837866391990788   10.3467204025837187
   H    O 
    68    34
Direct
  0.2776823202585750  0.1330600313322318  0.4064264009181229
  0.1907165527952519  0.2506309788339757  0.5118448385488347
  0.7248730969428676  0.8716368005131369  0.5997357931821424
  0.8582766674365331  0.8230524085999821  0.6401558101713156
  0.7255484752619831  0.1282575195571689  0.4008314476974811
  0.8566681497988888  0.1772515869989310  0.3583728574191749
  0.2762101652734613  0.8692523052099845  0.5938348744292836
  0.1947177843388635  0.7466592174223324  0.4894541889098184
  0.7237111484942724  0.4056673998856853  0.2730959703570159
  0.8088098375357997  0.5107916882931584  0.2591862797519052
  0.2760654968702622  0.5925890518047110  0.7259019257719397
  0.1905488502949846  0.4878947586102149  0.7411113189632005
  0.2734060956398344  0.2722695282219545  0.8716423301002124
  0.1406134158520712  0.1820697854853350  0.8249340272318741
  0.7264053575903615  0.7274168344999844  0.1291828413516241
  0.8595056719783499  0.8170663866935940  0.1769141858648651
  0.2780022809223264  0.7267179024427047  0.1316282990258034
  0.1957562080796874  0.7418737176466674  0.2522810845670908
  0.7239663854980170  0.2745353368690214  0.8687072565838726
  0.8041233526219388  0.2584293804069807  0.7465484623966391
  0.2750809104760458  0.4004543329220722  0.2730171910049395
  0.1447029152227698  0.3572022273880425  0.1806406511467588
  0.7237278392332130  0.6007286043965985  0.7265348834255224
  0.8551824487325956  0.6413415622966635  0.8175236020388976
  0.3131085023885671  0.3190594088865598  0.4017092004065851
  0.3514568633637840  0.4674946746498492  0.4711241539047101
  0.6870016428312163  0.6828934189329923  0.5989351266562328
  0.6484614050900931  0.5341409126375904  0.5283880472516971
  0.6818436487025198  0.3151958432990716  0.3945790926821017
  0.5391195204074450  0.3709880958638788  0.3772189804591533
  0.3177467565323597  0.6847861569896487  0.6042921341322930
  0.4602872183293844  0.6299060559267030  0.6228793398410867
  0.3131615242760515  0.6001594003689854  0.9185587983769682
  0.3523905325860623  0.5301054021893649  0.9965506049263976
  0.6880487931023820  0.3992212809544541  0.0810712883307683
  0.6486908268228647  0.4698552671395705  0.0035554490811826
  0.3110863640194990  0.0822551275049757  0.6824548042783529
  0.3514948938969854  0.0064587647852831  0.5340455592918383
  0.6885734225983842  0.9175903082590852  0.3183254988740422
  0.6497040255914709  0.9950468142826489  0.4671370776940412
  0.3195167675389713  0.9202345574623036  0.3164821399930489
  0.4621562658722134  0.9942268045913490  0.3712580368654955
  0.6809749375633175  0.0820892557725007  0.6849805637786638
  0.5385616510937968  0.0074411217299283  0.6302636879734204
  0.3184166326768083  0.3966866302140797  0.0814060822529183
  0.4604970708224853  0.3771200551082143  0.0065980166878772
  0.6821042896356065  0.6031525444098402  0.9182458421220036
  0.5403402843343992  0.6224763154855948  0.9932290502466360
  0.0838051935364541  0.1616561446463208  0.3187791301231049
  0.0035209099952661  0.1750983338312492  0.2106454203104276
  0.0840732823137293  0.8386939316402410  0.6823246609488569
  0.0031425711347705  0.8234278829434997  0.7891434915983472
  0.9184393578945063  0.3172205569410287  0.1576795539260241
  0.9966807706837462  0.2091316691672434  0.0347572913439560
  0.0821385286961189  0.6806952281727563  0.8427589363648503
  0.0033668671089502  0.7888934350001024  0.9651498324033003
  0.9149113112363272  0.1552531336415320  0.8376615816757094
  0.9957733522707506  0.0336194338853988  0.8238218315414642
  0.0855332321291660  0.8436610096092253  0.1620494125827069
  0.0047486076291458  0.9649516068407209  0.1761182964477033
  0.1694636056222871  0.5732969688027683  0.2876438680162553
  0.0380258656829656  0.6636439089670072  0.3316757653195050
  0.8250816317134055  0.2908650230799970  0.5745573000887609
  0.8248353159328295  0.4253295139101625  0.7068675891632764
  0.1626927251823890  0.2883299586732733  0.7156572702725618
  0.0315758957787823  0.3317614423896295  0.6678977283052643
  0.8305843794769996  0.7171472302817892  0.4240343142885782
  0.8308458101580434  0.7128750478110876  0.2887456364776445
  0.2227584893441205  0.2086578129783194  0.4214841160142256
  0.7783931047231265  0.7942607090966708  0.5814408804414174
  0.7755199253252458  0.2062996983441537  0.4156171609228544
  0.2248566457146992  0.7923499899952170  0.5804028569420805
  0.7791942683231891  0.4197301640717426  0.2121338290768408
  0.2216280514691602  0.5785407695142195  0.7874185982792298
  0.2198581496921832  0.2116199225247329  0.7949481438923215
  0.7794498374676128  0.7878808735193020  0.2063525242533512
  0.2266521460047596  0.7893543435981497  0.2091077346820727
  0.7756301609774154  0.2119402187943859  0.7913652213072236
  0.2248724317736445  0.4156368624723899  0.2101614688585260
  0.7742091333420750  0.5838833203100123  0.7881262678053406
  0.3601131570501827  0.3852424217329293  0.3892577247637318
  0.6392089586196240  0.6163617457269527  0.6101837965869120
  0.6391636321796890  0.3854768911929334  0.3864329396285780
  0.3602368118076471  0.6154539207099595  0.6142165552816845
  0.3610956230189433  0.6120808007180358  0.9964737031616954
  0.6402060983752847  0.3876754105779980  0.0032546242520935
  0.3595742342865780  0.0053074850404075  0.6154831986769610
  0.6411823128463252  0.9953298837225698  0.3852956583173331
  0.3620650714149643  0.0000299309965709  0.3853784881114009
  0.6386762410180522  0.0020734146290348  0.6161832430054870
  0.3606723858351237  0.3879034660664821  0.0023688010918524
  0.6402728275372402  0.6119441260606007  0.9974087766671431
  0.0019300168554913  0.1321560914331284  0.2625586937062072
  0.0013051820555480  0.8666010728166659  0.7374562119510153
  0.0002462248218191  0.2609247136367977  0.1296513241735157
  0.0003422121613979  0.7370206145338967  0.8702529651173609
  0.9963998051789541  0.1285603973744216  0.8674972562789376
  0.0031469329969961  0.8700168109535756  0.1329974533318316
  0.1396382034149090  0.6642541337622511  0.3319258041197105
  0.8569666484390981  0.3351108002984931  0.6649566657798375
  0.1331966758141941  0.3314016562655845  0.6677393383407678
  0.8632110389170482  0.6678745025205112  0.3339195735413276
 
  0.00000000E+00  0.00000000E+00  0.00000000E+00
  0.00000000E+00  0.00000000E+00  0.00000000E+00
  0.00000000E+00  0.00000000E+00  0.00000000E+00
  0.00000000E+00  0.00000000E+00  0.00000000E+00
  0.00000000E+00  0.00000000E+00  0.00000000E+00
  0.00000000E+00  0.00000000E+00  0.00000000E+00
  0.00000000E+00  0.00000000E+00  0.00000000E+00
  0.00000000E+00  0.00000000E+00  0.00000000E+00
  0.00000000E+00  0.00000000E+00  0.00000000E+00
  0.00000000E+00  0.00000000E+00  0.00000000E+00
  0.00000000E+00  0.00000000E+00  0.00000000E+00
  0.00000000E+00  0.00000000E+00  0.00000000E+00
  0.00000000E+00  0.00000000E+00  0.00000000E+00
  0.00000000E+00  0.00000000E+00  0.00000000E+00
  0.00000000E+00  0.00000000E+00  0.00000000E+00
  0.00000000E+00  0.00000000E+00  0.00000000E+00
  0.00000000E+00  0.00000000E+00  0.00000000E+00
  0.00000000E+00  0.00000000E+00  0.00000000E+00
  0.00000000E+00  0.00000000E+00  0.00000000E+00
  0.00000000E+00  0.00000000E+00  0.00000000E+00
  0.00000000E+00  0.00000000E+00  0.00000000E+00
  0.00000000E+00  0.00000000E+00  0.00000000E+00
  0.00000000E+00  0.00000000E+00  0.00000000E+00
  0.00000000E+00  0.00000000E+00  0.00000000E+00
  0.00000000E+00  0.00000000E+00  0.00000000E+00
  0.00000000E+00  0.00000000E+00  0.00000000E+00
  0.00000000E+00  0.00000000E+00  0.00000000E+00
  0.00000000E+00  0.00000000E+00  0.00000000E+00
  0.00000000E+00  0.00000000E+00  0.00000000E+00
  0.00000000E+00  0.00000000E+00  0.00000000E+00
  0.00000000E+00  0.00000000E+00  0.00000000E+00
  0.00000000E+00  0.00000000E+00  0.00000000E+00
  0.00000000E+00  0.00000000E+00  0.00000000E+00
  0.00000000E+00  0.00000000E+00  0.00000000E+00
  0.00000000E+00  0.00000000E+00  0.00000000E+00
  0.00000000E+00  0.00000000E+00  0.00000000E+00
  0.00000000E+00  0.00000000E+00  0.00000000E+00
  0.00000000E+00  0.00000000E+00  0.00000000E+00
  0.00000000E+00  0.00000000E+00  0.00000000E+00
  0.00000000E+00  0.00000000E+00  0.00000000E+00
  0.00000000E+00  0.00000000E+00  0.00000000E+00
  0.00000000E+00  0.00000000E+00  0.00000000E+00
  0.00000000E+00  0.00000000E+00  0.00000000E+00
  0.00000000E+00  0.00000000E+00  0.00000000E+00
  0.00000000E+00  0.00000000E+00  0.00000000E+00
  0.00000000E+00  0.00000000E+00  0.00000000E+00
  0.00000000E+00  0.00000000E+00  0.00000000E+00
  0.00000000E+00  0.00000000E+00  0.00000000E+00
  0.00000000E+00  0.00000000E+00  0.00000000E+00
  0.00000000E+00  0.00000000E+00  0.00000000E+00
  0.00000000E+00  0.00000000E+00  0.00000000E+00
  0.00000000E+00  0.00000000E+00  0.00000000E+00
  0.00000000E+00  0.00000000E+00  0.00000000E+00
  0.00000000E+00  0.00000000E+00  0.00000000E+00
  0.00000000E+00  0.00000000E+00  0.00000000E+00
  0.00000000E+00  0.00000000E+00  0.00000000E+00
  0.00000000E+00  0.00000000E+00  0.00000000E+00
  0.00000000E+00  0.00000000E+00  0.00000000E+00
  0.00000000E+00  0.00000000E+00  0.00000000E+00
  0.00000000E+00  0.00000000E+00  0.00000000E+00
  0.00000000E+00  0.00000000E+00  0.00000000E+00
  0.00000000E+00  0.00000000E+00  0.00000000E+00
  0.00000000E+00  0.00000000E+00  0.00000000E+00
  0.00000000E+00  0.00000000E+00  0.00000000E+00
  0.00000000E+00  0.00000000E+00  0.00000000E+00
  0.00000000E+00  0.00000000E+00  0.00000000E+00
  0.00000000E+00  0.00000000E+00  0.00000000E+00
  0.00000000E+00  0.00000000E+00  0.00000000E+00
  0.00000000E+00  0.00000000E+00  0.00000000E+00
  0.00000000E+00  0.00000000E+00  0.00000000E+00
  0.00000000E+00  0.00000000E+00  0.00000000E+00
  0.00000000E+00  0.00000000E+00  0.00000000E+00
  0.00000000E+00  0.00000000E+00  0.00000000E+00
  0.00000000E+00  0.00000000E+00  0.00000000E+00
  0.00000000E+00  0.00000000E+00  0.00000000E+00
  0.00000000E+00  0.00000000E+00  0.00000000E+00
  0.00000000E+00  0.00000000E+00  0.00000000E+00
  0.00000000E+00  0.00000000E+00  0.00000000E+00
  0.00000000E+00  0.00000000E+00  0.00000000E+00
  0.00000000E+00  0.00000000E+00  0.00000000E+00
  0.00000000E+00  0.00000000E+00  0.00000000E+00
  0.00000000E+00  0.00000000E+00  0.00000000E+00
  0.00000000E+00  0.00000000E+00  0.00000000E+00
  0.00000000E+00  0.00000000E+00  0.00000000E+00
  0.00000000E+00  0.00000000E+00  0.00000000E+00
  0.00000000E+00  0.00000000E+00  0.00000000E+00
  0.00000000E+00  0.00000000E+00  0.00000000E+00
  0.00000000E+00  0.00000000E+00  0.00000000E+00
  0.00000000E+00  0.00000000E+00  0.00000000E+00
  0.00000000E+00  0.00000000E+00  0.00000000E+00
  0.00000000E+00  0.00000000E+00  0.00000000E+00
  0.00000000E+00  0.00000000E+00  0.00000000E+00
  0.00000000E+00  0.00000000E+00  0.00000000E+00
  0.00000000E+00  0.00000000E+00  0.00000000E+00
  0.00000000E+00  0.00000000E+00  0.00000000E+00
  0.00000000E+00  0.00000000E+00  0.00000000E+00
  0.00000000E+00  0.00000000E+00  0.00000000E+00
  0.00000000E+00  0.00000000E+00  0.00000000E+00
  0.00000000E+00  0.00000000E+00  0.00000000E+00
  0.00000000E+00  0.00000000E+00  0.00000000E+00
  0.00000000E+00  0.00000000E+00  0.00000000E+00
  0.00000000E+00  0.00000000E+00  0.00000000E+00
