H2O                                     
   1.00000000000000     
    12.2087670352979902   -0.0084774821239286    0.0105812928231790
     6.0965933264065475   11.1607731613070413    0.0177588052190757
     6.2623152329859169    0.0998397261181139   12.4529636658588156
   H    O 
    76    38
Direct
  0.1290943090509103  0.1729201558051008  0.7228981764232049
  0.0433199434034473  0.1223189683527672  0.8280742336526682
  0.8862995811067518  0.8027721899936618  0.1531566749201486
  0.9574461261498918  0.8725687529911847  0.1628491957531667
  0.3509808485995568  0.1953521465180562  0.8402245719341300
  0.5009942430253094  0.1268345825581489  0.8318252743418493
  0.5633357180461173  0.7338292341447379  0.1693576965276651
  0.4983519775306833  0.8743702123063313  0.1606223334437544
  0.4569938493874870  0.1926348418848588  0.1547098695867411
  0.3782632561037605  0.1220096792925604  0.1622875329878686
  0.6436511101593202  0.8209301805189658  0.7274167822186126
  0.5419241154195814  0.8077338133139387  0.8430592793331960
  0.6990449350693644  0.1702998149251910  0.2721469880856288
  0.8349823862783851  0.1201907144044848  0.1680606048496968
  0.3023017588355884  0.8166438515320869  0.7302953609568259
  0.2419347548330042  0.7348267575355049  0.8243179765942750
  0.3491142959168110  0.1267057156220027  0.6107000161014634
  0.2893414296091079  0.1340655538498886  0.5300292943585403
  0.8090687805338104  0.8389001369678248  0.3222873532866989
  0.6556873575234805  0.8596736746651006  0.3810854492117345
  0.4838766978496080  0.1493957189586727  0.6750175519842656
  0.5462621672280655  0.0277972480763355  0.6178607852901051
  0.5159058537943650  0.8385059904167559  0.3236255038436487
  0.4542283102444146  0.9586277652954809  0.3818290302344730
  0.3665083217977504  0.1507986443473525  0.3216468507084345
  0.4623451599276608  0.1268277378278036  0.3790098794323910
  0.5409027302087920  0.8588686952699007  0.6121662841757609
  0.6816299666069001  0.8528113026386221  0.5314947494353693
  0.6601297081612870  0.0252271217562036  0.3880748074210074
  0.5769849769157166  0.1330349490378295  0.4656016962267072
  0.3401024722650896  0.9597009311337785  0.6103073360026786
  0.4234010504067614  0.8523098791929126  0.5329378290459171
  0.7690809558175327  0.3187772338643752  0.1461564080570385
  0.7159344860985583  0.4587134627183607  0.1197268535579913
  0.1254116754429211  0.6177380977833733  0.8940474105501318
  0.1927263101329553  0.6215843975416337  0.9640334470514768
  0.2610984819061997  0.3162458524896474  0.1439822951967444
  0.2852690136487759  0.3744565001256195  0.0298554617801495
  0.7337205647457130  0.6793637647582100  0.8490271310148697
  0.7998215941914986  0.5379355599600228  0.8721104735273885
  0.5217254211009325  0.6144416041838202  0.0996085782064833
  0.6591671408227839  0.6214724061959557  0.0289979370510849
  0.4192712747156828  0.3211197108711872  0.8508914313956363
  0.3428326130438601  0.4615382272656513  0.8727864290196419
  0.0854038277294401  0.6767895405100225  0.1420150273138357
  0.1727558730742340  0.5351139244020159  0.1208328801367374
  0.9119047158371615  0.3200257988260491  0.8465767770996828
  0.8219128981556415  0.3733765833393936  0.9622648588683013
  0.0818473922637306  0.3827514232162675  0.0803024350003503
  0.9479252861415086  0.3839308457654504  0.0801023557741350
  0.9072419351349117  0.6169462179364166  0.9132378106306207
  0.9909119046072219  0.5311217143418919  0.9796218900891042
  0.3234134910616933  0.6129985451697689  0.0805252710697576
  0.4751078510070282  0.5295083887184974  0.0141165671661578
  0.6689490071107559  0.3847779688583340  0.9112670551953810
  0.5342462334276488  0.3846101251976433  0.9139681272501973
  0.1473453101244014  0.1964615604843173  0.8671313523466571
  0.1334105377122917  0.2687796964115338  0.9539258062191194
  0.7167494054171089  0.7977308266117114  0.1236839512297531
  0.8640980096239902  0.7268527881092087  0.0350701840649389
  0.6591936842450129  0.1932986782800920  0.1264282715683815
  0.6013888431826783  0.2657957772069345  0.0386125526694394
  0.3419092953001448  0.8036475787961803  0.8776665483897789
  0.4009913188161305  0.7299434839928810  0.9644616238238364
  0.0962975902111047  0.9289304716624645  0.8613197694117103
  0.9337020303500505  0.9959624502942027  0.9046776827192599
  0.9940898838448684  0.0009811755374740  0.0281910621195449
  0.0683079831072451  0.0001838509066477  0.0941816623195510
  0.4793257440337294  0.0003384886865903  0.0231591565957381
  0.3369932276980566  0.0018985031658455  0.0902281667347010
  0.6196610651593428  0.9286656130517641  0.8550814975830873
  0.6701566764330612  0.9950149655219035  0.9003294443527038
  0.2148699447480827  0.0717153687999040  0.9946440293541531
  0.2850460692737903  0.9306428983051659  0.9987132895513922
  0.7845443176956738  0.9252526886814261  0.0019220506208651
  0.7164170762370691  0.0664123718248290  0.0013958122707866
  0.0635341912389481  0.1917775641894335  0.7976145457333919
  0.9360682720577099  0.8036568786411947  0.1921844982927246
  0.4413169812236585  0.1952339048934640  0.8018836618082114
  0.5557500355099922  0.8056271148138809  0.1921685032481927
  0.3678485060215513  0.1903811876586562  0.1930646387103133
  0.6316315664151206  0.8087692064943331  0.8027699991046577
  0.7457297463200734  0.1893934959009906  0.1970769117932609
  0.2525909380831220  0.8095997310632947  0.8075976929817276
  0.2762180531115425  0.1178802172348981  0.6053965701300634
  0.7262837531129911  0.8704847003086444  0.3880073250567394
  0.4973282963488905  0.1148097693929084  0.6120251208880028
  0.5024879863144347  0.8712068117281230  0.3874517580828524
  0.3844461128470519  0.1163901245749378  0.3864353951833746
  0.6192520961415547  0.8670739918725916  0.6071435998634109
  0.6098407001009143  0.1132583677989445  0.3909340063141700
  0.3905368637608275  0.8719231892444766  0.6077772020107314
  0.7954390854570297  0.3809208211744334  0.1012180758133406
  0.2093451275575886  0.6149538835562101  0.8892170374469966
  0.2151144691464577  0.3819896487934349  0.1029860554306521
  0.7767594800367008  0.6166800525324537  0.8933573759420795
  0.6008522900617692  0.6121163169100859  0.1037933539104286
  0.4030041886460353  0.3840337809495440  0.8925109326474281
  0.1730689741292921  0.6135778269419497  0.0985463265547037
  0.8256917069264911  0.3847313285608918  0.8891519797657366
  0.0335846587860836  0.3907045012504784  0.0369146214790299
  0.9670851026017128  0.6108744775997119  0.9452961235917278
  0.4156626346704174  0.6080031078961030  0.0492949080411328
  0.5775937839461125  0.3901441860644592  0.9559816557223250
  0.1932440679010313  0.1958772526895092  0.9101411654041802
  0.8066568920783697  0.7979558596976849  0.0813612226793446
  0.6144254162001187  0.1924457224838312  0.0830408153335743
  0.3880763603063636  0.8035976011347380  0.9201508505086835
  0.0149370154312005  0.0017999853420150  0.8963623015533594
  0.9843779388252909  0.9992870296911491  0.1025239975582379
  0.4143094474216646  0.9999848356271713  0.0977041414559120
  0.5925061208553615  0.0009461332770366  0.8906856860328485
  0.2262730748590420  0.0023870361868546  0.0441174190452095
  0.7745719131248269  0.9961551120034791  0.9542067305646750
 
  0.00000000E+00  0.00000000E+00  0.00000000E+00
  0.00000000E+00  0.00000000E+00  0.00000000E+00
  0.00000000E+00  0.00000000E+00  0.00000000E+00
  0.00000000E+00  0.00000000E+00  0.00000000E+00
  0.00000000E+00  0.00000000E+00  0.00000000E+00
  0.00000000E+00  0.00000000E+00  0.00000000E+00
  0.00000000E+00  0.00000000E+00  0.00000000E+00
  0.00000000E+00  0.00000000E+00  0.00000000E+00
  0.00000000E+00  0.00000000E+00  0.00000000E+00
  0.00000000E+00  0.00000000E+00  0.00000000E+00
  0.00000000E+00  0.00000000E+00  0.00000000E+00
  0.00000000E+00  0.00000000E+00  0.00000000E+00
  0.00000000E+00  0.00000000E+00  0.00000000E+00
  0.00000000E+00  0.00000000E+00  0.00000000E+00
  0.00000000E+00  0.00000000E+00  0.00000000E+00
  0.00000000E+00  0.00000000E+00  0.00000000E+00
  0.00000000E+00  0.00000000E+00  0.00000000E+00
  0.00000000E+00  0.00000000E+00  0.00000000E+00
  0.00000000E+00  0.00000000E+00  0.00000000E+00
  0.00000000E+00  0.00000000E+00  0.00000000E+00
  0.00000000E+00  0.00000000E+00  0.00000000E+00
  0.00000000E+00  0.00000000E+00  0.00000000E+00
  0.00000000E+00  0.00000000E+00  0.00000000E+00
  0.00000000E+00  0.00000000E+00  0.00000000E+00
  0.00000000E+00  0.00000000E+00  0.00000000E+00
  0.00000000E+00  0.00000000E+00  0.00000000E+00
  0.00000000E+00  0.00000000E+00  0.00000000E+00
  0.00000000E+00  0.00000000E+00  0.00000000E+00
  0.00000000E+00  0.00000000E+00  0.00000000E+00
  0.00000000E+00  0.00000000E+00  0.00000000E+00
  0.00000000E+00  0.00000000E+00  0.00000000E+00
  0.00000000E+00  0.00000000E+00  0.00000000E+00
  0.00000000E+00  0.00000000E+00  0.00000000E+00
  0.00000000E+00  0.00000000E+00  0.00000000E+00
  0.00000000E+00  0.00000000E+00  0.00000000E+00
  0.00000000E+00  0.00000000E+00  0.00000000E+00
  0.00000000E+00  0.00000000E+00  0.00000000E+00
  0.00000000E+00  0.00000000E+00  0.00000000E+00
  0.00000000E+00  0.00000000E+00  0.00000000E+00
  0.00000000E+00  0.00000000E+00  0.00000000E+00
  0.00000000E+00  0.00000000E+00  0.00000000E+00
  0.00000000E+00  0.00000000E+00  0.00000000E+00
  0.00000000E+00  0.00000000E+00  0.00000000E+00
  0.00000000E+00  0.00000000E+00  0.00000000E+00
  0.00000000E+00  0.00000000E+00  0.00000000E+00
  0.00000000E+00  0.00000000E+00  0.00000000E+00
  0.00000000E+00  0.00000000E+00  0.00000000E+00
  0.00000000E+00  0.00000000E+00  0.00000000E+00
  0.00000000E+00  0.00000000E+00  0.00000000E+00
  0.00000000E+00  0.00000000E+00  0.00000000E+00
  0.00000000E+00  0.00000000E+00  0.00000000E+00
  0.00000000E+00  0.00000000E+00  0.00000000E+00
  0.00000000E+00  0.00000000E+00  0.00000000E+00
  0.00000000E+00  0.00000000E+00  0.00000000E+00
  0.00000000E+00  0.00000000E+00  0.00000000E+00
  0.00000000E+00  0.00000000E+00  0.00000000E+00
  0.00000000E+00  0.00000000E+00  0.00000000E+00
  0.00000000E+00  0.00000000E+00  0.00000000E+00
  0.00000000E+00  0.00000000E+00  0.00000000E+00
  0.00000000E+00  0.00000000E+00  0.00000000E+00
  0.00000000E+00  0.00000000E+00  0.00000000E+00
  0.00000000E+00  0.00000000E+00  0.00000000E+00
  0.00000000E+00  0.00000000E+00  0.00000000E+00
  0.00000000E+00  0.00000000E+00  0.00000000E+00
  0.00000000E+00  0.00000000E+00  0.00000000E+00
  0.00000000E+00  0.00000000E+00  0.00000000E+00
  0.00000000E+00  0.00000000E+00  0.00000000E+00
  0.00000000E+00  0.00000000E+00  0.00000000E+00
  0.00000000E+00  0.00000000E+00  0.00000000E+00
  0.00000000E+00  0.00000000E+00  0.00000000E+00
  0.00000000E+00  0.00000000E+00  0.00000000E+00
  0.00000000E+00  0.00000000E+00  0.00000000E+00
  0.00000000E+00  0.00000000E+00  0.00000000E+00
  0.00000000E+00  0.00000000E+00  0.00000000E+00
  0.00000000E+00  0.00000000E+00  0.00000000E+00
  0.00000000E+00  0.00000000E+00  0.00000000E+00
  0.00000000E+00  0.00000000E+00  0.00000000E+00
  0.00000000E+00  0.00000000E+00  0.00000000E+00
  0.00000000E+00  0.00000000E+00  0.00000000E+00
  0.00000000E+00  0.00000000E+00  0.00000000E+00
  0.00000000E+00  0.00000000E+00  0.00000000E+00
  0.00000000E+00  0.00000000E+00  0.00000000E+00
  0.00000000E+00  0.00000000E+00  0.00000000E+00
  0.00000000E+00  0.00000000E+00  0.00000000E+00
  0.00000000E+00  0.00000000E+00  0.00000000E+00
  0.00000000E+00  0.00000000E+00  0.00000000E+00
  0.00000000E+00  0.00000000E+00  0.00000000E+00
  0.00000000E+00  0.00000000E+00  0.00000000E+00
  0.00000000E+00  0.00000000E+00  0.00000000E+00
  0.00000000E+00  0.00000000E+00  0.00000000E+00
  0.00000000E+00  0.00000000E+00  0.00000000E+00
  0.00000000E+00  0.00000000E+00  0.00000000E+00
  0.00000000E+00  0.00000000E+00  0.00000000E+00
  0.00000000E+00  0.00000000E+00  0.00000000E+00
  0.00000000E+00  0.00000000E+00  0.00000000E+00
  0.00000000E+00  0.00000000E+00  0.00000000E+00
  0.00000000E+00  0.00000000E+00  0.00000000E+00
  0.00000000E+00  0.00000000E+00  0.00000000E+00
  0.00000000E+00  0.00000000E+00  0.00000000E+00
  0.00000000E+00  0.00000000E+00  0.00000000E+00
  0.00000000E+00  0.00000000E+00  0.00000000E+00
  0.00000000E+00  0.00000000E+00  0.00000000E+00
  0.00000000E+00  0.00000000E+00  0.00000000E+00
  0.00000000E+00  0.00000000E+00  0.00000000E+00
  0.00000000E+00  0.00000000E+00  0.00000000E+00
  0.00000000E+00  0.00000000E+00  0.00000000E+00
  0.00000000E+00  0.00000000E+00  0.00000000E+00
  0.00000000E+00  0.00000000E+00  0.00000000E+00
  0.00000000E+00  0.00000000E+00  0.00000000E+00
  0.00000000E+00  0.00000000E+00  0.00000000E+00
  0.00000000E+00  0.00000000E+00  0.00000000E+00
  0.00000000E+00  0.00000000E+00  0.00000000E+00
  0.00000000E+00  0.00000000E+00  0.00000000E+00
  0.00000000E+00  0.00000000E+00  0.00000000E+00
