H2O                                     
   1.00000000000000     
    10.3372111399846656   -0.0182981653940709   -0.0162090834799034
     5.0247078709049937    9.0856413507320806    0.0144705638767816
     0.0260699373272390    0.0430269603094772    5.4397597298683404
   H    O 
    36    18
Direct
  0.1016250702755663  0.7080695182123670  0.8397762292201445
  0.0844423488607458  0.7993139054532725  0.0759506126797461
  0.2119863012865696  0.0652876446697458  0.5116658432943548
  0.3074351565518554  0.9381156505860451  0.6957849700258774
  0.9098834076847784  0.1544672254295268  0.1976539129786832
  0.8468027377013132  0.0972420344079580  0.4209663544844562
  0.3195317693518872  0.5361869642677449  0.6825367842914830
  0.2188053942165616  0.6624091563470937  0.4951998849614881
  0.3147448530561888  0.1396282449541618  0.2323343136257486
  0.1487369846714164  0.1810478675426445  0.1710832617109662
  0.7012713878679315  0.1780132977864937  0.0918465338730524
  0.7038655029401996  0.1090724754100265  0.8360477298657890
  0.9594991388270817  0.4568439484221795  0.6837374924496469
  0.8683895017292570  0.5269002686619906  0.9227981097770951
  0.7475868337594889  0.7661201061907276  0.3511122482562888
  0.6066729866380088  0.9199781047105493  0.3462946153216081
  0.4969481819497144  0.5678853398784719  0.0049614603345317
  0.5726105383054674  0.5865493416602295  0.2409680624895106
  0.9269174955520637  0.6962451328976668  0.0762185283095208
  0.9522627697832388  0.5711428856072073  0.2620672935149853
  0.5115823832027593  0.7647941853163205  0.9140851909863287
  0.5678866112709324  0.8264444178170035  0.6879240652629243
  0.7419558606976471  0.3569103292849118  0.4076202554304988
  0.7545184735633270  0.4685552940496368  0.5854405612424627
  0.5374298392452567  0.0973719307099971  0.0662915463225854
  0.4894304252926502  0.9772115209864514  0.0036078131502778
  0.5398602591453423  0.3506250804783274  0.8500132592248396
  0.5616432909485409  0.4546005742601990  0.6623275511760894
  0.1377063807156738  0.3559556637894563  0.4067995352876354
  0.1380246391293629  0.4978334924309049  0.5231275702386380
  0.0819142051716513  0.1045308592395007  0.8481799439962668
  0.9708930192768551  0.2726329059835367  0.9037234739887864
  0.9056119658608621  0.9135739426928097  0.7508159243861868
  0.7788731146449651  0.9277555628217989  0.5735384249050346
  0.2075725517643908  0.8685270912636656  0.4091375880513399
  0.3180563932561338  0.7445748991507399  0.2313791877635392
  0.0276047166194243  0.7796998672416008  0.9525949355122789
  0.2080223663749441  0.9918046005131271  0.6238817132406991
  0.8241435434421667  0.1768374235555526  0.3016189153802830
  0.2173161151284735  0.5943204318240847  0.6215537199356999
  0.2137761144335662  0.1841949215437803  0.3003420963874842
  0.6363458202283478  0.1770366290070711  0.9603709768410718
  0.8845798567145365  0.4547332570415811  0.7946913474031874
  0.6792863102038114  0.8455615287228666  0.4590995349955768
  0.4983069318221331  0.6420878215027142  0.1150831733065398
  0.8779945560600735  0.6439177706299108  0.1485430551435465
  0.4894004336854638  0.8507845759809555  0.8095260115703855
  0.6879205280545069  0.4581012344810503  0.4682449001706576
  0.4878752533404573  0.0438501275189347  0.1329306380857897
  0.4934038213284521  0.4528878282722750  0.7881166253065659
  0.0751157952963160  0.4559588027034752  0.4696292064477511
  0.0238805495319459  0.1736743635365993  0.9778628041033431
  0.8273798603687417  0.9818034510377961  0.6390639971285688
  0.2168798759690376  0.7911237906239025  0.2962802161631164
 
  0.00000000E+00  0.00000000E+00  0.00000000E+00
  0.00000000E+00  0.00000000E+00  0.00000000E+00
  0.00000000E+00  0.00000000E+00  0.00000000E+00
  0.00000000E+00  0.00000000E+00  0.00000000E+00
  0.00000000E+00  0.00000000E+00  0.00000000E+00
  0.00000000E+00  0.00000000E+00  0.00000000E+00
  0.00000000E+00  0.00000000E+00  0.00000000E+00
  0.00000000E+00  0.00000000E+00  0.00000000E+00
  0.00000000E+00  0.00000000E+00  0.00000000E+00
  0.00000000E+00  0.00000000E+00  0.00000000E+00
  0.00000000E+00  0.00000000E+00  0.00000000E+00
  0.00000000E+00  0.00000000E+00  0.00000000E+00
  0.00000000E+00  0.00000000E+00  0.00000000E+00
  0.00000000E+00  0.00000000E+00  0.00000000E+00
  0.00000000E+00  0.00000000E+00  0.00000000E+00
  0.00000000E+00  0.00000000E+00  0.00000000E+00
  0.00000000E+00  0.00000000E+00  0.00000000E+00
  0.00000000E+00  0.00000000E+00  0.00000000E+00
  0.00000000E+00  0.00000000E+00  0.00000000E+00
  0.00000000E+00  0.00000000E+00  0.00000000E+00
  0.00000000E+00  0.00000000E+00  0.00000000E+00
  0.00000000E+00  0.00000000E+00  0.00000000E+00
  0.00000000E+00  0.00000000E+00  0.00000000E+00
  0.00000000E+00  0.00000000E+00  0.00000000E+00
  0.00000000E+00  0.00000000E+00  0.00000000E+00
  0.00000000E+00  0.00000000E+00  0.00000000E+00
  0.00000000E+00  0.00000000E+00  0.00000000E+00
  0.00000000E+00  0.00000000E+00  0.00000000E+00
  0.00000000E+00  0.00000000E+00  0.00000000E+00
  0.00000000E+00  0.00000000E+00  0.00000000E+00
  0.00000000E+00  0.00000000E+00  0.00000000E+00
  0.00000000E+00  0.00000000E+00  0.00000000E+00
  0.00000000E+00  0.00000000E+00  0.00000000E+00
  0.00000000E+00  0.00000000E+00  0.00000000E+00
  0.00000000E+00  0.00000000E+00  0.00000000E+00
  0.00000000E+00  0.00000000E+00  0.00000000E+00
  0.00000000E+00  0.00000000E+00  0.00000000E+00
  0.00000000E+00  0.00000000E+00  0.00000000E+00
  0.00000000E+00  0.00000000E+00  0.00000000E+00
  0.00000000E+00  0.00000000E+00  0.00000000E+00
  0.00000000E+00  0.00000000E+00  0.00000000E+00
  0.00000000E+00  0.00000000E+00  0.00000000E+00
  0.00000000E+00  0.00000000E+00  0.00000000E+00
  0.00000000E+00  0.00000000E+00  0.00000000E+00
  0.00000000E+00  0.00000000E+00  0.00000000E+00
  0.00000000E+00  0.00000000E+00  0.00000000E+00
  0.00000000E+00  0.00000000E+00  0.00000000E+00
  0.00000000E+00  0.00000000E+00  0.00000000E+00
  0.00000000E+00  0.00000000E+00  0.00000000E+00
  0.00000000E+00  0.00000000E+00  0.00000000E+00
  0.00000000E+00  0.00000000E+00  0.00000000E+00
  0.00000000E+00  0.00000000E+00  0.00000000E+00
  0.00000000E+00  0.00000000E+00  0.00000000E+00
  0.00000000E+00  0.00000000E+00  0.00000000E+00
