H2O                                     
   1.00000000000000     
     6.5569915701851444    0.0302627571934139   -0.0520417629327901
     0.1687841497132717    6.5959705499575243    0.0301050862156450
     3.2104237429997284    0.0460662240024195    6.8842941998356961
   H    O 
    24    12
Direct
  0.2611872557266034  0.5354785480948123  0.0285924208224764
  0.7388127442735956  0.4645214519046903  0.9714075791775734
  0.0748751474192684  0.5993712665291272  0.2338559407704513
  0.9251248525807174  0.4006287334712780  0.7661440592299538
  0.9267433252892215  0.1097930080652724  0.2555901625396506
  0.0732566747104445  0.8902069919352249  0.7444098374603494
  0.7888578262122935  0.2887762724052007  0.3908177318278654
  0.2111421737873086  0.7112237275946999  0.6091822681720350
  0.2090671220088490  0.8965639411877087  0.0849244616360316
  0.7909328779915490  0.1034360588118012  0.9150755383639897
  0.2756000165396439  0.0732452481234430  0.1824929273745849
  0.7243999834606474  0.9267547518765782  0.8175070726255147
  0.4654774445754959  0.6470769376533695  0.1713702796382118
  0.5345225554240991  0.3529230623469291  0.8286297203615893
  0.6827339235807407  0.7764290639901533  0.0795546559399585
  0.3172660764196642  0.2235709360103440  0.9204453440600699
  0.3077844453267091  0.0244931261164790  0.4535701518850354
  0.6922155546734898  0.9755068738835139  0.5464298481152632
  0.5270983089607180  0.1348888989311294  0.3262264059111933
  0.4729016910396799  0.8651111010685721  0.6737735940884088
  0.2785187023844242  0.4088236775887342  0.6811049789807964
  0.7214812976152702  0.5911763224113582  0.3188950210197011
  0.2507355484344482  0.3537132885887144  0.4942198045510565
  0.7492644515650474  0.6462867114114844  0.5057801954489435
  0.2206894516531275  0.6361956075118593  0.1314606296898501
  0.7793105483470786  0.3638043924877426  0.8685393703101497
  0.7795072099378300  0.1474936087161124  0.3576688921090254
  0.2204927900618715  0.8525063912835820  0.6423311078910742
  0.1996500432396784  0.0445002068440204  0.0978687418644331
  0.8003499567602149  0.9554997931559724  0.9021312581357659
  0.6225969528688048  0.6509433454291861  0.1526386651106319
  0.3774030471308968  0.3490566545712190  0.8473613348891692
  0.3678678919096635  0.1295698447367622  0.3522017277777826
  0.6321321080907344  0.8704301552628257  0.6477982722219190
  0.1970509227226393  0.4492701499497029  0.6016997656917433
  0.8029490772773678  0.5507298500504960  0.3983002343080577
 
  0.00000000E+00  0.00000000E+00  0.00000000E+00
  0.00000000E+00  0.00000000E+00  0.00000000E+00
  0.00000000E+00  0.00000000E+00  0.00000000E+00
  0.00000000E+00  0.00000000E+00  0.00000000E+00
  0.00000000E+00  0.00000000E+00  0.00000000E+00
  0.00000000E+00  0.00000000E+00  0.00000000E+00
  0.00000000E+00  0.00000000E+00  0.00000000E+00
  0.00000000E+00  0.00000000E+00  0.00000000E+00
  0.00000000E+00  0.00000000E+00  0.00000000E+00
  0.00000000E+00  0.00000000E+00  0.00000000E+00
  0.00000000E+00  0.00000000E+00  0.00000000E+00
  0.00000000E+00  0.00000000E+00  0.00000000E+00
  0.00000000E+00  0.00000000E+00  0.00000000E+00
  0.00000000E+00  0.00000000E+00  0.00000000E+00
  0.00000000E+00  0.00000000E+00  0.00000000E+00
  0.00000000E+00  0.00000000E+00  0.00000000E+00
  0.00000000E+00  0.00000000E+00  0.00000000E+00
  0.00000000E+00  0.00000000E+00  0.00000000E+00
  0.00000000E+00  0.00000000E+00  0.00000000E+00
  0.00000000E+00  0.00000000E+00  0.00000000E+00
  0.00000000E+00  0.00000000E+00  0.00000000E+00
  0.00000000E+00  0.00000000E+00  0.00000000E+00
  0.00000000E+00  0.00000000E+00  0.00000000E+00
  0.00000000E+00  0.00000000E+00  0.00000000E+00
  0.00000000E+00  0.00000000E+00  0.00000000E+00
  0.00000000E+00  0.00000000E+00  0.00000000E+00
  0.00000000E+00  0.00000000E+00  0.00000000E+00
  0.00000000E+00  0.00000000E+00  0.00000000E+00
  0.00000000E+00  0.00000000E+00  0.00000000E+00
  0.00000000E+00  0.00000000E+00  0.00000000E+00
  0.00000000E+00  0.00000000E+00  0.00000000E+00
  0.00000000E+00  0.00000000E+00  0.00000000E+00
  0.00000000E+00  0.00000000E+00  0.00000000E+00
  0.00000000E+00  0.00000000E+00  0.00000000E+00
  0.00000000E+00  0.00000000E+00  0.00000000E+00
  0.00000000E+00  0.00000000E+00  0.00000000E+00
