H2O                                     
   1.00000000000000     
     2.8278534927319039   -0.0878265576490728    0.0017895662020871
     0.4749332039661778    6.9814854401300286   -0.0009297674476671
     0.1342016780394069    0.0027206711564622    4.4673743274344577
   H    O 
     8     4
Direct
  0.9844456440660704  0.0900691573012509  0.0576149989966427
  0.6495150820793506  0.2207617335503208  0.2547023193697533
  0.9901031674092405  0.0270664461564322  0.5580172156499335
  0.6864682341810190  0.8945340219751093  0.7570595039709148
  0.9251894293629367  0.4067635155484919  0.7501183146865410
  0.5901196040538020  0.5345956530952680  0.5560939111206895
  0.1878182924826229  0.7249743537011303  0.2589666186349482
  0.5237028671893026  0.5958692521206536  0.0572539302357067
  0.9718375163146072  0.1688989056613509  0.2399788383112367
  0.9973272027196622  0.9479295499002891  0.7403164078544884
  0.6021339644348429  0.4568053709838208  0.7396447743841660
  0.5100089957022029  0.6737120400062064  0.2406131667853141
 
  0.00000000E+00  0.00000000E+00  0.00000000E+00
  0.00000000E+00  0.00000000E+00  0.00000000E+00
  0.00000000E+00  0.00000000E+00  0.00000000E+00
  0.00000000E+00  0.00000000E+00  0.00000000E+00
  0.00000000E+00  0.00000000E+00  0.00000000E+00
  0.00000000E+00  0.00000000E+00  0.00000000E+00
  0.00000000E+00  0.00000000E+00  0.00000000E+00
  0.00000000E+00  0.00000000E+00  0.00000000E+00
  0.00000000E+00  0.00000000E+00  0.00000000E+00
  0.00000000E+00  0.00000000E+00  0.00000000E+00
  0.00000000E+00  0.00000000E+00  0.00000000E+00
  0.00000000E+00  0.00000000E+00  0.00000000E+00
