H2O                                     
   1.00000000000000     
     4.1716895450186922   -2.2595319785220065    0.4000013138896881
     4.1716895450186922    2.2595319785220065    0.4000013138896880
    -3.3513554657589069    0.0000000000000000    5.1806716586661361
   H    O 
     8     4
Direct
  0.0137409353126603  0.6630853140339276  0.7905204635285101
  0.9862590646873397  0.3369146859660723  0.2094795364714827
  0.3369146859660723  0.9862590646873397  0.2094795364714827
  0.6630853140339276  0.0137409353126603  0.7905204635285101
  0.4447492612969480  0.4447492612969480  0.2250941374699558
  0.5552507387030591  0.5552507387030591  0.7749058625300370
  0.6345605897245229  0.6345605897245229  0.4522059330908561
  0.3654394102754912  0.3654394102754912  0.5477940669091368
  0.7657408536452918  0.7657408536452918  0.7774194122184398
  0.2342591463547083  0.2342591463547083  0.2225805877815602
  0.5735822945162725  0.5735822945162725  0.2731469684459755
  0.4264177054837275  0.4264177054837275  0.7268530315540246
 
  0.00000000E+00  0.00000000E+00  0.00000000E+00
  0.00000000E+00  0.00000000E+00  0.00000000E+00
  0.00000000E+00  0.00000000E+00  0.00000000E+00
  0.00000000E+00  0.00000000E+00  0.00000000E+00
  0.00000000E+00  0.00000000E+00  0.00000000E+00
  0.00000000E+00  0.00000000E+00  0.00000000E+00
  0.00000000E+00  0.00000000E+00  0.00000000E+00
  0.00000000E+00  0.00000000E+00  0.00000000E+00
  0.00000000E+00  0.00000000E+00  0.00000000E+00
  0.00000000E+00  0.00000000E+00  0.00000000E+00
  0.00000000E+00  0.00000000E+00  0.00000000E+00
  0.00000000E+00  0.00000000E+00  0.00000000E+00
