H2O                                     
   1.00000000000000     
     6.1768388364884812    0.0000000000000000   -0.0316996617857242
     0.0000000000000000    6.9247219041935724    0.0000000000000000
    -1.5189638337569142    0.0000000000000000    8.7633653059430774
   H    O 
    32    16
Direct
  0.4220587419556210  0.5618520442155117  0.1226370318832114
  0.5779412580447769  0.0618520442159096  0.8773629681170870
  0.2159013530090526  0.5119765852771998  0.1941812012646282
  0.7840986469905495  0.0119765852769013  0.8058187987355778
  0.8411372386183108  0.4633100183489683  0.4668387851573189
  0.1588627613820870  0.9633100183485704  0.5331612148427806
  0.0955026115072774  0.4342836489134930  0.5188293790516048
  0.9044973884927439  0.9342836489137913  0.4811706209478980
  0.6130498396137772  0.7879991274203423  0.9794161492935372
  0.3869501603862228  0.2879991274200368  0.0205838507069389
  0.7302456272558570  0.7260816516397213  0.1412201363146669
  0.2697543727442425  0.2260816516396218  0.8587798636858305
  0.1489203381894518  0.8888948866763294  0.9751448884994117
  0.8510796618109461  0.3888948866764289  0.0248551115007730
  0.3438922296579254  0.9164880107195202  0.1057357901731809
  0.6561077703421740  0.4164880107194918  0.8942642098263146
  0.4853178628322659  0.0449306056548666  0.6542394325092564
  0.5146821371682314  0.5449306056548453  0.3457605674907436
  0.3832479024228748  0.2439745902010555  0.5983804594493035
  0.6167520975773242  0.7439745902009489  0.4016195405506042
  0.0284857929821230  0.7311863113610317  0.3439347439247944
  0.9715142070178415  0.2311863113614295  0.6560652560750067
  0.0721690772501524  0.7869751659028335  0.1827573311487505
  0.9278309227498120  0.2869751659023290  0.8172426688508516
  0.5530733040291004  0.0682612310140764  0.4250558111085798
  0.4469266959707007  0.5682612310140692  0.5749441888918252
  0.6928722012606808  0.0714093371422734  0.2889333764148097
  0.3071277987393191  0.5714093371422378  0.7110666235852898
  0.9476284856580516  0.2762540097939457  0.2852823171316926
  0.0523715143419058  0.7762540097943365  0.7147176828682079
  0.0116677177793748  0.1346579495903168  0.1609845450220763
  0.9883322822206323  0.6346579495902174  0.8390154549777319
  0.3565966937176514  0.4597258538113272  0.1773839494355590
  0.6434033062824552  0.9597258538115332  0.8226160505641427
  0.9587098457826667  0.3665406230274776  0.4782130076536851
  0.0412901542170845  0.8665406230278755  0.5217869923459100
  0.5850140694628112  0.7500134577613747  0.0795660692014632
  0.4149859305372883  0.2500134577618721  0.9204339307985439
  0.1874204859014456  0.9438711096120810  0.0779316768996816
  0.8125795140983555  0.4438711096124505  0.9220683231003468
  0.3971228382383348  0.1103093288157906  0.5660299033324727
  0.6028771617618642  0.6103093288157693  0.4339700966677263
  0.0059746203653253  0.6857825535747316  0.2382595872207051
  0.9940253796346676  0.1857825535744332  0.7617404127797994
  0.6467347106454213  0.9934214525987858  0.3683791502217686
  0.3532652893543797  0.4934214525985371  0.6316208497778264
  0.8957927823377372  0.2177904469267101  0.1851851995279859
  0.1042072176625612  0.7177904469270086  0.8148148004715167
 
  0.00000000E+00  0.00000000E+00  0.00000000E+00
  0.00000000E+00  0.00000000E+00  0.00000000E+00
  0.00000000E+00  0.00000000E+00  0.00000000E+00
  0.00000000E+00  0.00000000E+00  0.00000000E+00
  0.00000000E+00  0.00000000E+00  0.00000000E+00
  0.00000000E+00  0.00000000E+00  0.00000000E+00
  0.00000000E+00  0.00000000E+00  0.00000000E+00
  0.00000000E+00  0.00000000E+00  0.00000000E+00
  0.00000000E+00  0.00000000E+00  0.00000000E+00
  0.00000000E+00  0.00000000E+00  0.00000000E+00
  0.00000000E+00  0.00000000E+00  0.00000000E+00
  0.00000000E+00  0.00000000E+00  0.00000000E+00
  0.00000000E+00  0.00000000E+00  0.00000000E+00
  0.00000000E+00  0.00000000E+00  0.00000000E+00
  0.00000000E+00  0.00000000E+00  0.00000000E+00
  0.00000000E+00  0.00000000E+00  0.00000000E+00
  0.00000000E+00  0.00000000E+00  0.00000000E+00
  0.00000000E+00  0.00000000E+00  0.00000000E+00
  0.00000000E+00  0.00000000E+00  0.00000000E+00
  0.00000000E+00  0.00000000E+00  0.00000000E+00
  0.00000000E+00  0.00000000E+00  0.00000000E+00
  0.00000000E+00  0.00000000E+00  0.00000000E+00
  0.00000000E+00  0.00000000E+00  0.00000000E+00
  0.00000000E+00  0.00000000E+00  0.00000000E+00
  0.00000000E+00  0.00000000E+00  0.00000000E+00
  0.00000000E+00  0.00000000E+00  0.00000000E+00
  0.00000000E+00  0.00000000E+00  0.00000000E+00
  0.00000000E+00  0.00000000E+00  0.00000000E+00
  0.00000000E+00  0.00000000E+00  0.00000000E+00
  0.00000000E+00  0.00000000E+00  0.00000000E+00
  0.00000000E+00  0.00000000E+00  0.00000000E+00
  0.00000000E+00  0.00000000E+00  0.00000000E+00
  0.00000000E+00  0.00000000E+00  0.00000000E+00
  0.00000000E+00  0.00000000E+00  0.00000000E+00
  0.00000000E+00  0.00000000E+00  0.00000000E+00
  0.00000000E+00  0.00000000E+00  0.00000000E+00
  0.00000000E+00  0.00000000E+00  0.00000000E+00
  0.00000000E+00  0.00000000E+00  0.00000000E+00
  0.00000000E+00  0.00000000E+00  0.00000000E+00
  0.00000000E+00  0.00000000E+00  0.00000000E+00
  0.00000000E+00  0.00000000E+00  0.00000000E+00
  0.00000000E+00  0.00000000E+00  0.00000000E+00
  0.00000000E+00  0.00000000E+00  0.00000000E+00
  0.00000000E+00  0.00000000E+00  0.00000000E+00
  0.00000000E+00  0.00000000E+00  0.00000000E+00
  0.00000000E+00  0.00000000E+00  0.00000000E+00
  0.00000000E+00  0.00000000E+00  0.00000000E+00
  0.00000000E+00  0.00000000E+00  0.00000000E+00
