H2O                                     
   1.00000000000000     
    -3.8356168067497500    3.8356168067497500    3.8356168067497496
     3.8356168067497500   -3.8356168067497500    3.8356168067497500
     3.8356168067497505    3.8356168067497500   -3.8356168067497500
   H    O 
    12     6
Direct
  0.7376391370090338  0.3978742810979936  0.3397648559110404
  0.9418905748131462  0.6021257189016015  0.3397648559115378
  0.3978742810983986  0.6602351440884622  0.0581094251868537
  0.6602351440884622  0.2623608629900637  0.6021257189016015
  0.0581094251868537  0.3978742810983986  0.6602351440884622
  0.3978742810983986  0.3397648559115378  0.7376391370099362
  0.3397648559115378  0.7376391370099362  0.3978742810983986
  0.3397648559115378  0.9418905748131462  0.6021257189016015
  0.6602351440884622  0.0581094251868537  0.3978742810983986
  0.6021257189016015  0.6602351440884622  0.2623608629900637
  0.6021257189016015  0.3397648559115378  0.9418905748131462
  0.2623608629900637  0.6021257189016015  0.6602351440884622
  0.7624772938757517  0.5000000000000000  0.2624772938757517
  0.5000000000000000  0.7375227061241346  0.2375227061241417
  0.7375227061241346  0.2375227061241417  0.5000000000000000
  0.2375227061241417  0.5000000000000000  0.7375227061241346
  0.5000000000000000  0.2624772938758583  0.7624772938758654
  0.2624772938758583  0.7624772938758654  0.5000000000000000
 
  0.00000000E+00  0.00000000E+00  0.00000000E+00
  0.00000000E+00  0.00000000E+00  0.00000000E+00
  0.00000000E+00  0.00000000E+00  0.00000000E+00
  0.00000000E+00  0.00000000E+00  0.00000000E+00
  0.00000000E+00  0.00000000E+00  0.00000000E+00
  0.00000000E+00  0.00000000E+00  0.00000000E+00
  0.00000000E+00  0.00000000E+00  0.00000000E+00
  0.00000000E+00  0.00000000E+00  0.00000000E+00
  0.00000000E+00  0.00000000E+00  0.00000000E+00
  0.00000000E+00  0.00000000E+00  0.00000000E+00
  0.00000000E+00  0.00000000E+00  0.00000000E+00
  0.00000000E+00  0.00000000E+00  0.00000000E+00
  0.00000000E+00  0.00000000E+00  0.00000000E+00
  0.00000000E+00  0.00000000E+00  0.00000000E+00
  0.00000000E+00  0.00000000E+00  0.00000000E+00
  0.00000000E+00  0.00000000E+00  0.00000000E+00
  0.00000000E+00  0.00000000E+00  0.00000000E+00
  0.00000000E+00  0.00000000E+00  0.00000000E+00
