H2O                                     
   1.00000000000000     
     2.2072906713530891   -3.7979363702588564   -0.0092520560321347
     2.2072906713530891    3.7979363702588564   -0.0092520560321347
    -0.1178145325058443    0.0000000000000000    7.1694567211231703
   H    O 
     8     4
Direct
  0.6726128035315191  0.3321724544581649  0.2836967278036496
  0.3321724544575680  0.6726128035317180  0.7836967278037490
  0.5548652561673493  0.0870677601649250  0.1034788226942623
  0.0870677601647260  0.5548652561671503  0.6034788226943759
  0.4604784716754457  0.5394474961715887  0.0672076640289111
  0.5394474961715745  0.4604784716754528  0.5672076640289324
  0.1005490502543864  0.5401939741888196  0.0696392336871918
  0.5401939741895231  0.1005490502542869  0.5696392336871918
  0.6794495257285875  0.3340078767118233  0.1463673563507016
  0.3340078767126191  0.6794495257283886  0.6463673563508081
  0.3411899544602445  0.6652853764871359  0.0220701954352593
  0.6652853764869370  0.3411899544600456  0.5220701954352381
 
  0.00000000E+00  0.00000000E+00  0.00000000E+00
  0.00000000E+00  0.00000000E+00  0.00000000E+00
  0.00000000E+00  0.00000000E+00  0.00000000E+00
  0.00000000E+00  0.00000000E+00  0.00000000E+00
  0.00000000E+00  0.00000000E+00  0.00000000E+00
  0.00000000E+00  0.00000000E+00  0.00000000E+00
  0.00000000E+00  0.00000000E+00  0.00000000E+00
  0.00000000E+00  0.00000000E+00  0.00000000E+00
  0.00000000E+00  0.00000000E+00  0.00000000E+00
  0.00000000E+00  0.00000000E+00  0.00000000E+00
  0.00000000E+00  0.00000000E+00  0.00000000E+00
  0.00000000E+00  0.00000000E+00  0.00000000E+00
