H2O                                     
   1.00000000000000     
     8.5110089697374605    0.0000000000000000    0.0000000000000000
     0.0000000000000000    8.6854785618359127    0.0000000000000000
     0.0000000000000000    0.0000000000000000    8.4973469606438261
   H    O 
    32    16
Direct
  0.9705309129617582  0.6687045352276664  0.9298440490076726
  0.0294690870378936  0.3312954647723267  0.9298440490077365
  0.5294690870378936  0.1687045352276734  0.0701559509922635
  0.4705309129621135  0.8312954647723336  0.0701559509922635
  0.8323626854366584  0.5508258544086627  0.9317625518405865
  0.1676373145634410  0.4491741455910391  0.9317625518406576
  0.6676373145634411  0.0508258544089680  0.0682374481593494
  0.3323626854365590  0.9491741455910246  0.0682374481593494
  0.1666217622048367  0.3247493444990237  0.7106395936643178
  0.8333782377951634  0.6752506555011822  0.7106395936640123
  0.3333782377951632  0.8247493444988178  0.2893604063359950
  0.6666217622048366  0.1752506555011824  0.2893604063359950
  0.1757485533086343  0.4492018191145401  0.5798374857081480
  0.8242514466912663  0.5507981808853604  0.5798374857086454
  0.3242514466912663  0.9492018191146396  0.4201625142913546
  0.6757485533087337  0.0507981808853604  0.4201625142913546
  0.7750212985655132  0.2794916531084191  0.5161767696071550
  0.2249787014345720  0.7205083468911760  0.5161767696068565
  0.7249787014345863  0.7794916531088240  0.4838232303931435
  0.2750212985654278  0.2205083468911831  0.4838232303931435
  0.9465854072415842  0.3274951882982356  0.5721572115585264
  0.0534145927579752  0.6725048117018709  0.5721572115581285
  0.5534145927579752  0.8274951882981291  0.4278427884418718
  0.4465854072420177  0.1725048117018569  0.4278427884418718
  0.2448550531684162  0.7194683881254345  0.9658288991910610
  0.7551449468317756  0.2805316118749634  0.9658288991910610
  0.2551449468317828  0.2194683881250366  0.0341711008089390
  0.7448550531682244  0.7805316118749634  0.0341711008089390
  0.1903651011218012  0.6657837705730700  0.7946983434373670
  0.8096348988777085  0.3342162294274273  0.7946983434370544
  0.3096348988777013  0.1657837705725726  0.2053016565629458
  0.6903651011222915  0.8342162294274273  0.2053016565629458
  0.8556961124810790  0.6610577166952168  0.9210634280791710
  0.1443038875184304  0.3389422833049820  0.9210634280789010
  0.6443038875184236  0.1610577166950179  0.0789365719210991
  0.3556961124815696  0.8389422833049821  0.0789365719210991
  0.1600339735151743  0.3383495508830415  0.5963109380896949
  0.8399660264846126  0.6616504491172572  0.5963109380898939
  0.3399660264846197  0.8383495508827428  0.4036890619100990
  0.6600339735153874  0.1616504491172570  0.4036890619100990
  0.8346021227400983  0.3481870368662767  0.5862135228706644
  0.1653978772600936  0.6518129631339226  0.5862135228709628
  0.6653978772601007  0.8481870368660774  0.4137864771290373
  0.3346021227398993  0.1518129631339222  0.4137864771290373
  0.1746632414938189  0.6497721873329084  0.9076468253206310
  0.8253367585061739  0.3502278126672766  0.9076468253202047
  0.3253367585061809  0.1497721873327164  0.0923531746797952
  0.6746632414938261  0.8502278126672905  0.0923531746797952
 
  0.00000000E+00  0.00000000E+00  0.00000000E+00
  0.00000000E+00  0.00000000E+00  0.00000000E+00
  0.00000000E+00  0.00000000E+00  0.00000000E+00
  0.00000000E+00  0.00000000E+00  0.00000000E+00
  0.00000000E+00  0.00000000E+00  0.00000000E+00
  0.00000000E+00  0.00000000E+00  0.00000000E+00
  0.00000000E+00  0.00000000E+00  0.00000000E+00
  0.00000000E+00  0.00000000E+00  0.00000000E+00
  0.00000000E+00  0.00000000E+00  0.00000000E+00
  0.00000000E+00  0.00000000E+00  0.00000000E+00
  0.00000000E+00  0.00000000E+00  0.00000000E+00
  0.00000000E+00  0.00000000E+00  0.00000000E+00
  0.00000000E+00  0.00000000E+00  0.00000000E+00
  0.00000000E+00  0.00000000E+00  0.00000000E+00
  0.00000000E+00  0.00000000E+00  0.00000000E+00
  0.00000000E+00  0.00000000E+00  0.00000000E+00
  0.00000000E+00  0.00000000E+00  0.00000000E+00
  0.00000000E+00  0.00000000E+00  0.00000000E+00
  0.00000000E+00  0.00000000E+00  0.00000000E+00
  0.00000000E+00  0.00000000E+00  0.00000000E+00
  0.00000000E+00  0.00000000E+00  0.00000000E+00
  0.00000000E+00  0.00000000E+00  0.00000000E+00
  0.00000000E+00  0.00000000E+00  0.00000000E+00
  0.00000000E+00  0.00000000E+00  0.00000000E+00
  0.00000000E+00  0.00000000E+00  0.00000000E+00
  0.00000000E+00  0.00000000E+00  0.00000000E+00
  0.00000000E+00  0.00000000E+00  0.00000000E+00
  0.00000000E+00  0.00000000E+00  0.00000000E+00
  0.00000000E+00  0.00000000E+00  0.00000000E+00
  0.00000000E+00  0.00000000E+00  0.00000000E+00
  0.00000000E+00  0.00000000E+00  0.00000000E+00
  0.00000000E+00  0.00000000E+00  0.00000000E+00
  0.00000000E+00  0.00000000E+00  0.00000000E+00
  0.00000000E+00  0.00000000E+00  0.00000000E+00
  0.00000000E+00  0.00000000E+00  0.00000000E+00
  0.00000000E+00  0.00000000E+00  0.00000000E+00
  0.00000000E+00  0.00000000E+00  0.00000000E+00
  0.00000000E+00  0.00000000E+00  0.00000000E+00
  0.00000000E+00  0.00000000E+00  0.00000000E+00
  0.00000000E+00  0.00000000E+00  0.00000000E+00
  0.00000000E+00  0.00000000E+00  0.00000000E+00
  0.00000000E+00  0.00000000E+00  0.00000000E+00
  0.00000000E+00  0.00000000E+00  0.00000000E+00
  0.00000000E+00  0.00000000E+00  0.00000000E+00
  0.00000000E+00  0.00000000E+00  0.00000000E+00
  0.00000000E+00  0.00000000E+00  0.00000000E+00
  0.00000000E+00  0.00000000E+00  0.00000000E+00
  0.00000000E+00  0.00000000E+00  0.00000000E+00
