H2O                                     
   1.00000000000000     
     3.9841434141389080    0.0000000000000000    0.0000000000000000
     0.0000000000000000    7.9481066727618916    0.0000000000000000
     0.0000000000000000    0.0000000000000000    8.1534497626912703
   H    O 
    24    12
Direct
  0.9845197481389811  0.0466102711766710  0.1552783704215383
  0.4845197481384768  0.4533897288232864  0.8447216295785612
  0.5154802518615234  0.9533897288232864  0.6552783704214388
  0.0154802518615233  0.5466102711767136  0.3447216295785683
  0.2699376177120894  0.0907058041398540  0.2820946497103070
  0.7699376177118904  0.4092941958601318  0.7179053502898919
  0.2300623822881095  0.9092941958601317  0.7820946497101081
  0.7300623822881096  0.5907058041398683  0.2179053502898919
  0.3402029246986558  0.2800155547095846  0.4621838803070032
  0.8402029246989542  0.2199844452906144  0.5378161196933947
  0.1597970753010458  0.7199844452906144  0.9621838803066053
  0.6597970753010458  0.7800155547093856  0.0378161196934018
  0.6184139078213481  0.3395411886132260  0.3350671524136357
  0.1184139078213409  0.1604588113866745  0.6649328475859664
  0.8815860921786519  0.6604588113866745  0.8350671524140336
  0.3815860921786591  0.8395411886133255  0.1649328475859664
  0.0669342950022400  0.2831255063513073  0.9751126849589332
  0.5669342950022400  0.2168744936485861  0.0248873150409744
  0.4330657049977600  0.7168744936485860  0.4751126849590256
  0.9330657049977600  0.7831255063514140  0.5248873150409815
  0.1432999352745501  0.4261966541565317  0.0969281546943447
  0.6432999352747560  0.0738033458435677  0.9030718453056340
  0.3567000647252510  0.5738033458435676  0.5969281546943660
  0.8567000647252440  0.9261966541564324  0.4030718453056340
  0.1246574858929703  0.9996364189636546  0.2427002229425534
  0.6246574858926647  0.5003635810363241  0.7572997770571481
  0.3753425141073353  0.0003635810363241  0.7427002229428519
  0.8753425141073353  0.4996364189636759  0.2572997770571481
  0.5141616932428248  0.2408425839124659  0.3866477705129942
  0.0141616932427252  0.2591574160873351  0.6133522294875103
  0.9858383067572747  0.7591574160873280  0.8866477705124897
  0.4858383067572748  0.7408425839126720  0.1133522294875103
  0.2411976496011975  0.3647822905340564  0.0042951858544016
  0.7411976496017091  0.1352177094656452  0.9957048141456054
  0.2588023503982980  0.6352177094656453  0.5042951858543946
  0.7588023503982909  0.8647822905343547  0.4957048141456055
 
  0.00000000E+00  0.00000000E+00  0.00000000E+00
  0.00000000E+00  0.00000000E+00  0.00000000E+00
  0.00000000E+00  0.00000000E+00  0.00000000E+00
  0.00000000E+00  0.00000000E+00  0.00000000E+00
  0.00000000E+00  0.00000000E+00  0.00000000E+00
  0.00000000E+00  0.00000000E+00  0.00000000E+00
  0.00000000E+00  0.00000000E+00  0.00000000E+00
  0.00000000E+00  0.00000000E+00  0.00000000E+00
  0.00000000E+00  0.00000000E+00  0.00000000E+00
  0.00000000E+00  0.00000000E+00  0.00000000E+00
  0.00000000E+00  0.00000000E+00  0.00000000E+00
  0.00000000E+00  0.00000000E+00  0.00000000E+00
  0.00000000E+00  0.00000000E+00  0.00000000E+00
  0.00000000E+00  0.00000000E+00  0.00000000E+00
  0.00000000E+00  0.00000000E+00  0.00000000E+00
  0.00000000E+00  0.00000000E+00  0.00000000E+00
  0.00000000E+00  0.00000000E+00  0.00000000E+00
  0.00000000E+00  0.00000000E+00  0.00000000E+00
  0.00000000E+00  0.00000000E+00  0.00000000E+00
  0.00000000E+00  0.00000000E+00  0.00000000E+00
  0.00000000E+00  0.00000000E+00  0.00000000E+00
  0.00000000E+00  0.00000000E+00  0.00000000E+00
  0.00000000E+00  0.00000000E+00  0.00000000E+00
  0.00000000E+00  0.00000000E+00  0.00000000E+00
  0.00000000E+00  0.00000000E+00  0.00000000E+00
  0.00000000E+00  0.00000000E+00  0.00000000E+00
  0.00000000E+00  0.00000000E+00  0.00000000E+00
  0.00000000E+00  0.00000000E+00  0.00000000E+00
  0.00000000E+00  0.00000000E+00  0.00000000E+00
  0.00000000E+00  0.00000000E+00  0.00000000E+00
  0.00000000E+00  0.00000000E+00  0.00000000E+00
  0.00000000E+00  0.00000000E+00  0.00000000E+00
  0.00000000E+00  0.00000000E+00  0.00000000E+00
  0.00000000E+00  0.00000000E+00  0.00000000E+00
  0.00000000E+00  0.00000000E+00  0.00000000E+00
  0.00000000E+00  0.00000000E+00  0.00000000E+00
