H2O                                     
   1.00000000000000     
    14.1646409459463154   -0.1811768500442730   -0.1356434849014200
     0.0255107296653742   10.5008431273701426   -0.0148949332082632
    -0.8452161504186350   -5.1233290787263002    9.1809375559420250
   H    O 
   104    52
Direct
  0.0900579640275471  0.7705172137896876  0.3782857407619613
  0.1078042280052387  0.6549542117711937  0.2248766444304008
  0.7365429506735177  0.1809663544421525  0.6633125276862879
  0.8221326002511797  0.2532370101464329  0.6359670054549770
  0.1403335854594110  0.3562939230185987  0.8090861982087112
  0.0842199737378506  0.4854370158068415  0.9196452251779967
  0.8438981505604967  0.6834802351896168  0.2460118392600098
  0.9504850916137684  0.6866099871127388  0.2117860677948497
  0.1529814657201159  0.0812852011123782  0.7345417785271057
  0.0679726955553975  0.0926172368737399  0.8271714923111058
  0.8395889753245095  0.9548167646239057  0.1407089897414847
  0.8891375662113337  0.8845262094661229  0.9969330339380826
  0.1774786863098010  0.2128174528935588  0.5579319799056713
  0.1399595633887085  0.3661004961686397  0.6069337262464729
  0.9063357705327922  0.8357237747969323  0.5288373858881081
  0.9246348201365246  0.7750903127311811  0.6376846084721602
  0.1075252073117629  0.8553349730432422  0.6179972283573506
  0.0315956224095738  0.7344472882638752  0.5224179094273731
  0.8347258147805734  0.2314353094823402  0.4052019243406323
  0.9068851201713576  0.1477026238076432  0.4573920951438483
  0.0842338511649444  0.8651692122535461  0.2090649799974508
  0.0082491351331083  0.9353024441714614  0.1480902229560232
  0.8805205138492399  0.0704832205518452  0.6080451733053623
  0.9869078795586588  0.0370650104019027  0.6020590076670195
  0.1558472918313734  0.4385104730566412  0.0806067426643171
  0.1012491683771800  0.4448682372783819  0.2106754568482143
  0.7246216203507625  0.5951146988811953  0.9483424980880805
  0.8282228106324386  0.6486861159728591  0.0203413046959528
  0.0506991780204723  0.4233783508402765  0.3826236985794952
  0.9543406170311866  0.4157259082801318  0.2968508730303932
  0.9458949873245602  0.4032457098236283  0.5813257542692780
  0.0293157436166033  0.5145417705938339  0.6095132445507752
  0.1373790570227182  0.0347007287371815  0.1344333587493816
  0.1062875086271704  0.1406657972603811  0.0785436174427673
  0.9744296276262007  0.9433076363563050  0.8592555519634122
  0.0401407816920108  0.8158897972373440  0.8181463430351370
  0.9499457185429616  0.2198871721589224  0.9914529367014568
  0.9506860909126844  0.1113278807404755  0.0517113059394691
  0.1817677038202572  0.9179020036406634  0.9346936985259883
  0.2187763791318701  0.8116373441320662  0.7853303518512275
  0.1457252526769340  0.6130434613838045  0.5598282097005933
  0.1888580035931473  0.4588333154847168  0.4775545235561591
  0.8013851844294765  0.4314355399627044  0.3734121277176010
  0.8575786713386681  0.5769179758163174  0.4124368110179460
  0.0321642874095302  0.7073070214784595  0.9832071431514925
  0.9887686465002582  0.5803325226195132  0.8309794136097109
  0.8839863959175837  0.4505355276652176  0.0539345803218833
  0.8514097647320953  0.3218491520803860  0.8925817241126052
  0.3078407182092210  0.7189833944620615  0.4844318042331582
  0.2537920866831050  0.6211957694238632  0.3281020130717251
  0.5803573639507338  0.0788656211912856  0.4897381011709884
  0.6111660963216173  0.2430745160455463  0.5949237009077892
  0.3871870652526873  0.4461395631480717  0.6957090486944224
  0.3464739201161899  0.5523538247371387  0.8502632022584229
  0.7290054523638777  0.7894299311525924  0.4362996620861014
  0.6884739021208983  0.6768554565775606  0.2783348700165547
  0.2863760007255274  0.1081189322969320  0.6426184228329008
  0.2999162551045733  0.1617543701163281  0.8165238691999680
  0.7379123725582143  0.8913445224679198  0.2719966731450318
  0.6900236757993404  0.9000505037094584  0.1384345826549363
  0.2891250601881287  0.0165628545293489  0.3937968463552589
  0.3295044874862972  0.1804496935975199  0.4829322659210636
  0.6814032147349991  0.8983074272258766  0.6920257839945012
  0.7425143210390224  0.7591025286579128  0.6512416165503035
  0.7181021809177596  0.1290048102812323  0.2778641474970850
  0.7227503752139138  0.2327386558913175  0.2094397673090432
  0.3011993610735720  0.9160924356788070  0.6926951187728541
  0.3646868833308501  0.8035675032290800  0.7172603164471402
  0.3300402810691733  0.7871458003016673  0.3045219937050834
  0.3050024585028215  0.7836659717932439  0.1558343580322787
  0.6046627696118366  0.0975648920497598  0.7389846919288835
  0.6565400053811535  0.1361742070046504  0.8920179250127864
  0.4089690446058266  0.5377460189175893  0.2998605145823612
  0.3958406490525701  0.3905882354652055  0.1518727332572619
  0.6159585876293491  0.4794040375067325  0.7379859778570002
  0.6921643429588979  0.4687188718132062  0.6360838305418212
  0.5525828266353794  0.5031356853909592  0.1900283967666054
  0.5978053316314222  0.5228091084204609  0.0700353169907120
  0.5134726950549466  0.5221391924988578  0.8810826726325405
  0.5795359497563743  0.6614594645623845  0.9692822294870052
  0.3846006168430279  0.1676094196757740  0.9981023288605381
  0.2803409644875477  0.1893291002938756  0.0403292804419287
  0.5421772804661779  0.8924595391314561  0.1229515552240326
  0.5398597415483652  0.8431881759109615  0.9547626317818205
  0.4525185064015675  0.3200779450762742  0.4611051098037512
  0.3476673504038863  0.3518812879037806  0.4388782939521221
  0.6056003897016798  0.6807108405287342  0.5475178804499484
  0.5773980643831600  0.5409598291674731  0.5539636061204848
  0.5957411135355842  0.2764671976660800  0.3213205504619462
  0.5039139679152301  0.3478402582864557  0.2898529360310999
  0.4970571875575602  0.7066844442255797  0.6843242539446648
  0.4412310904622855  0.6679672198700047  0.7830877187568865
  0.5242347302591963  0.0693768598869550  0.9229049003623543
  0.5132014731383345  0.1396350091744193  0.0911384156537887
  0.4393574459473518  0.9440412940704924  0.2837047904682578
  0.4893349592190560  0.0844949221836915  0.2941450102073963
  0.2373213815755813  0.4014000280274920  0.2760319330558096
  0.2184496503300284  0.2520671337980053  0.2631105178239255
  0.8526186449288410  0.5847018712366999  0.6565594076978734
  0.7906429730445271  0.6316015116250153  0.7839210390146546
  0.6758045167979480  0.3548928915866187  0.0993625009698315
  0.7734382341856523  0.2947639441876208  0.0472785716758378
  0.2270278309761128  0.7068252935234940  0.9260584151999320
  0.2185291884578950  0.5720918589953229  0.9522444426034751
  0.0771907335234840  0.7466903535207017  0.2760418672824883
  0.8018257764196067  0.2191573329852127  0.7010326463925126
  0.1387084408603708  0.4248084986941948  0.9134852838507665
  0.8868609025474478  0.6423096227471182  0.1698411143169701
  0.0871698879357164  0.0472333916675329  0.7296856846605669
  0.8937432530707469  0.9672798786572822  0.0943469399349990
  0.1327469000276611  0.2806100706040187  0.6181743062937480
  0.9140172106186645  0.7452517366691639  0.5334527768838084
  0.1008187374236247  0.7563287562427209  0.5351719274752501
  0.8815025123911422  0.2416247831306951  0.4829086030225484
  0.0742250610598837  0.9080198029905724  0.1450006957404912
  0.9258683346443317  0.0089691963990941  0.5425539206127072
  0.1591596889408425  0.4794705327068888  0.1870424111324509
  0.7800664782411811  0.6486594092925295  0.9480910681856398
  0.0208933183960531  0.3901080771984014  0.2851611397792921
  0.9680814886251359  0.5062237396857523  0.6405547459498172
  0.1631669458097952  0.1031171867802620  0.1041318369249515
  0.9735067471900042  0.8374009690611888  0.8152402912154152
  0.9829150180627876  0.1360585770190913  0.9879280135882021
  0.1756897237200225  0.8172787421274424  0.8562568055472460
  0.1480526875648220  0.5169729300536132  0.5539716757876348
  0.8424618174633123  0.4758458918104896  0.3359697806265313
  0.0066719526246129  0.6068817455459580  0.9326943473947010
  0.8745927526591450  0.3443015279994246  0.9913177415780547
  0.3144513882841342  0.6707178281963464  0.3789976452063985
  0.6105710996397751  0.1460043247841177  0.5865350276550135
  0.4032181893650756  0.5138979894128942  0.7993685668611366
  0.7335311283988628  0.7613420011879246  0.3341430341588892
  0.2714837538008134  0.0876989838070379  0.7204112393453949
  0.7388237703070970  0.9482902779746201  0.2208241853939255
  0.2817081169833899  0.1106615322071593  0.4799104640120683
  0.7047775667513678  0.8115529466096790  0.6119406130311088
  0.7202749487912280  0.2321324375306788  0.3022846018894841
  0.3031965279818231  0.8148300204835723  0.6730337520438352
  0.3305824850525113  0.8478082452996069  0.2573051986670984
  0.6177395492149097  0.0596602904926182  0.8060431681197352
  0.4429705360309578  0.4569548932619099  0.2303651016351375
  0.6294746300538168  0.4288099403453970  0.6359688785137604
  0.6135943012928113  0.5134594444718361  0.1574246624353716
  0.5798654287567291  0.5534415909615210  0.9224195080036328
  0.3291580703329866  0.2284549468332766  0.0080131382492543
  0.5762019970089016  0.8399464920431179  0.0358678744412964
  0.3924846516951143  0.3335137243982608  0.5033161846630424
  0.5517529841801510  0.6135430722698993  0.5307926405729889
  0.5266840772713355  0.2654487958820022  0.3012286762269049
  0.4638090292953113  0.7510650140692314  0.7737271874331783
  0.4799322655277634  0.0839096319914039  0.9943338853784595
  0.5009580121993167  0.9937494075510838  0.2943164445288910
  0.2495561453774568  0.3487781121023512  0.3299612084443785
  0.7881525826504945  0.6094824885238328  0.6814367942764585
  0.7109053270560690  0.2651452902041697  0.0614216184722207
  0.2620843061892967  0.6523648906022564  0.9664523432798192
 
  0.00000000E+00  0.00000000E+00  0.00000000E+00
  0.00000000E+00  0.00000000E+00  0.00000000E+00
  0.00000000E+00  0.00000000E+00  0.00000000E+00
  0.00000000E+00  0.00000000E+00  0.00000000E+00
  0.00000000E+00  0.00000000E+00  0.00000000E+00
  0.00000000E+00  0.00000000E+00  0.00000000E+00
  0.00000000E+00  0.00000000E+00  0.00000000E+00
  0.00000000E+00  0.00000000E+00  0.00000000E+00
  0.00000000E+00  0.00000000E+00  0.00000000E+00
  0.00000000E+00  0.00000000E+00  0.00000000E+00
  0.00000000E+00  0.00000000E+00  0.00000000E+00
  0.00000000E+00  0.00000000E+00  0.00000000E+00
  0.00000000E+00  0.00000000E+00  0.00000000E+00
  0.00000000E+00  0.00000000E+00  0.00000000E+00
  0.00000000E+00  0.00000000E+00  0.00000000E+00
  0.00000000E+00  0.00000000E+00  0.00000000E+00
  0.00000000E+00  0.00000000E+00  0.00000000E+00
  0.00000000E+00  0.00000000E+00  0.00000000E+00
  0.00000000E+00  0.00000000E+00  0.00000000E+00
  0.00000000E+00  0.00000000E+00  0.00000000E+00
  0.00000000E+00  0.00000000E+00  0.00000000E+00
  0.00000000E+00  0.00000000E+00  0.00000000E+00
  0.00000000E+00  0.00000000E+00  0.00000000E+00
  0.00000000E+00  0.00000000E+00  0.00000000E+00
  0.00000000E+00  0.00000000E+00  0.00000000E+00
  0.00000000E+00  0.00000000E+00  0.00000000E+00
  0.00000000E+00  0.00000000E+00  0.00000000E+00
  0.00000000E+00  0.00000000E+00  0.00000000E+00
  0.00000000E+00  0.00000000E+00  0.00000000E+00
  0.00000000E+00  0.00000000E+00  0.00000000E+00
  0.00000000E+00  0.00000000E+00  0.00000000E+00
  0.00000000E+00  0.00000000E+00  0.00000000E+00
  0.00000000E+00  0.00000000E+00  0.00000000E+00
  0.00000000E+00  0.00000000E+00  0.00000000E+00
  0.00000000E+00  0.00000000E+00  0.00000000E+00
  0.00000000E+00  0.00000000E+00  0.00000000E+00
  0.00000000E+00  0.00000000E+00  0.00000000E+00
  0.00000000E+00  0.00000000E+00  0.00000000E+00
  0.00000000E+00  0.00000000E+00  0.00000000E+00
  0.00000000E+00  0.00000000E+00  0.00000000E+00
  0.00000000E+00  0.00000000E+00  0.00000000E+00
  0.00000000E+00  0.00000000E+00  0.00000000E+00
  0.00000000E+00  0.00000000E+00  0.00000000E+00
  0.00000000E+00  0.00000000E+00  0.00000000E+00
  0.00000000E+00  0.00000000E+00  0.00000000E+00
  0.00000000E+00  0.00000000E+00  0.00000000E+00
  0.00000000E+00  0.00000000E+00  0.00000000E+00
  0.00000000E+00  0.00000000E+00  0.00000000E+00
  0.00000000E+00  0.00000000E+00  0.00000000E+00
  0.00000000E+00  0.00000000E+00  0.00000000E+00
  0.00000000E+00  0.00000000E+00  0.00000000E+00
  0.00000000E+00  0.00000000E+00  0.00000000E+00
  0.00000000E+00  0.00000000E+00  0.00000000E+00
  0.00000000E+00  0.00000000E+00  0.00000000E+00
  0.00000000E+00  0.00000000E+00  0.00000000E+00
  0.00000000E+00  0.00000000E+00  0.00000000E+00
  0.00000000E+00  0.00000000E+00  0.00000000E+00
  0.00000000E+00  0.00000000E+00  0.00000000E+00
  0.00000000E+00  0.00000000E+00  0.00000000E+00
  0.00000000E+00  0.00000000E+00  0.00000000E+00
  0.00000000E+00  0.00000000E+00  0.00000000E+00
  0.00000000E+00  0.00000000E+00  0.00000000E+00
  0.00000000E+00  0.00000000E+00  0.00000000E+00
  0.00000000E+00  0.00000000E+00  0.00000000E+00
  0.00000000E+00  0.00000000E+00  0.00000000E+00
  0.00000000E+00  0.00000000E+00  0.00000000E+00
  0.00000000E+00  0.00000000E+00  0.00000000E+00
  0.00000000E+00  0.00000000E+00  0.00000000E+00
  0.00000000E+00  0.00000000E+00  0.00000000E+00
  0.00000000E+00  0.00000000E+00  0.00000000E+00
  0.00000000E+00  0.00000000E+00  0.00000000E+00
  0.00000000E+00  0.00000000E+00  0.00000000E+00
  0.00000000E+00  0.00000000E+00  0.00000000E+00
  0.00000000E+00  0.00000000E+00  0.00000000E+00
  0.00000000E+00  0.00000000E+00  0.00000000E+00
  0.00000000E+00  0.00000000E+00  0.00000000E+00
  0.00000000E+00  0.00000000E+00  0.00000000E+00
  0.00000000E+00  0.00000000E+00  0.00000000E+00
  0.00000000E+00  0.00000000E+00  0.00000000E+00
  0.00000000E+00  0.00000000E+00  0.00000000E+00
  0.00000000E+00  0.00000000E+00  0.00000000E+00
  0.00000000E+00  0.00000000E+00  0.00000000E+00
  0.00000000E+00  0.00000000E+00  0.00000000E+00
  0.00000000E+00  0.00000000E+00  0.00000000E+00
  0.00000000E+00  0.00000000E+00  0.00000000E+00
  0.00000000E+00  0.00000000E+00  0.00000000E+00
  0.00000000E+00  0.00000000E+00  0.00000000E+00
  0.00000000E+00  0.00000000E+00  0.00000000E+00
  0.00000000E+00  0.00000000E+00  0.00000000E+00
  0.00000000E+00  0.00000000E+00  0.00000000E+00
  0.00000000E+00  0.00000000E+00  0.00000000E+00
  0.00000000E+00  0.00000000E+00  0.00000000E+00
  0.00000000E+00  0.00000000E+00  0.00000000E+00
  0.00000000E+00  0.00000000E+00  0.00000000E+00
  0.00000000E+00  0.00000000E+00  0.00000000E+00
  0.00000000E+00  0.00000000E+00  0.00000000E+00
  0.00000000E+00  0.00000000E+00  0.00000000E+00
  0.00000000E+00  0.00000000E+00  0.00000000E+00
  0.00000000E+00  0.00000000E+00  0.00000000E+00
  0.00000000E+00  0.00000000E+00  0.00000000E+00
  0.00000000E+00  0.00000000E+00  0.00000000E+00
  0.00000000E+00  0.00000000E+00  0.00000000E+00
  0.00000000E+00  0.00000000E+00  0.00000000E+00
  0.00000000E+00  0.00000000E+00  0.00000000E+00
  0.00000000E+00  0.00000000E+00  0.00000000E+00
  0.00000000E+00  0.00000000E+00  0.00000000E+00
  0.00000000E+00  0.00000000E+00  0.00000000E+00
  0.00000000E+00  0.00000000E+00  0.00000000E+00
  0.00000000E+00  0.00000000E+00  0.00000000E+00
  0.00000000E+00  0.00000000E+00  0.00000000E+00
  0.00000000E+00  0.00000000E+00  0.00000000E+00
  0.00000000E+00  0.00000000E+00  0.00000000E+00
  0.00000000E+00  0.00000000E+00  0.00000000E+00
  0.00000000E+00  0.00000000E+00  0.00000000E+00
  0.00000000E+00  0.00000000E+00  0.00000000E+00
  0.00000000E+00  0.00000000E+00  0.00000000E+00
  0.00000000E+00  0.00000000E+00  0.00000000E+00
  0.00000000E+00  0.00000000E+00  0.00000000E+00
  0.00000000E+00  0.00000000E+00  0.00000000E+00
  0.00000000E+00  0.00000000E+00  0.00000000E+00
  0.00000000E+00  0.00000000E+00  0.00000000E+00
  0.00000000E+00  0.00000000E+00  0.00000000E+00
  0.00000000E+00  0.00000000E+00  0.00000000E+00
  0.00000000E+00  0.00000000E+00  0.00000000E+00
  0.00000000E+00  0.00000000E+00  0.00000000E+00
  0.00000000E+00  0.00000000E+00  0.00000000E+00
  0.00000000E+00  0.00000000E+00  0.00000000E+00
  0.00000000E+00  0.00000000E+00  0.00000000E+00
  0.00000000E+00  0.00000000E+00  0.00000000E+00
  0.00000000E+00  0.00000000E+00  0.00000000E+00
  0.00000000E+00  0.00000000E+00  0.00000000E+00
  0.00000000E+00  0.00000000E+00  0.00000000E+00
  0.00000000E+00  0.00000000E+00  0.00000000E+00
  0.00000000E+00  0.00000000E+00  0.00000000E+00
  0.00000000E+00  0.00000000E+00  0.00000000E+00
  0.00000000E+00  0.00000000E+00  0.00000000E+00
  0.00000000E+00  0.00000000E+00  0.00000000E+00
  0.00000000E+00  0.00000000E+00  0.00000000E+00
  0.00000000E+00  0.00000000E+00  0.00000000E+00
  0.00000000E+00  0.00000000E+00  0.00000000E+00
  0.00000000E+00  0.00000000E+00  0.00000000E+00
  0.00000000E+00  0.00000000E+00  0.00000000E+00
  0.00000000E+00  0.00000000E+00  0.00000000E+00
  0.00000000E+00  0.00000000E+00  0.00000000E+00
  0.00000000E+00  0.00000000E+00  0.00000000E+00
  0.00000000E+00  0.00000000E+00  0.00000000E+00
  0.00000000E+00  0.00000000E+00  0.00000000E+00
  0.00000000E+00  0.00000000E+00  0.00000000E+00
  0.00000000E+00  0.00000000E+00  0.00000000E+00
  0.00000000E+00  0.00000000E+00  0.00000000E+00
  0.00000000E+00  0.00000000E+00  0.00000000E+00
  0.00000000E+00  0.00000000E+00  0.00000000E+00
  0.00000000E+00  0.00000000E+00  0.00000000E+00
  0.00000000E+00  0.00000000E+00  0.00000000E+00
  0.00000000E+00  0.00000000E+00  0.00000000E+00
  0.00000000E+00  0.00000000E+00  0.00000000E+00
