H2O                                     
   1.00000000000000     
     2.8174276227584576    0.0000000000000000   -0.1770381243079935
     0.0000000000000000    4.5057885394028139    0.0000000000000000
    -0.9586726942273688    0.0000000000000000    3.5358412262123275
   H    O 
     4     2
Direct
  0.9939136309213596  0.5856536118331939  0.0605022903041359
  0.0060863690786403  0.0856536118336913  0.9394977096958357
  0.7702855120473359  0.7825870783299178  0.3142801189673421
  0.2297144879525717  0.2825870783295199  0.6857198810329634
  0.0487348908050713  0.7688093098368761  0.2147617838566393
  0.9512651091949004  0.2688093098367839  0.7852382161436591
 
  0.00000000E+00  0.00000000E+00  0.00000000E+00
  0.00000000E+00  0.00000000E+00  0.00000000E+00
  0.00000000E+00  0.00000000E+00  0.00000000E+00
  0.00000000E+00  0.00000000E+00  0.00000000E+00
  0.00000000E+00  0.00000000E+00  0.00000000E+00
  0.00000000E+00  0.00000000E+00  0.00000000E+00
