H2O                                     
   1.00000000000000     
     7.2864275832658230   -0.0000071229802211    2.0355708723851418
    -3.6432059878089058    6.3102081864768964    2.0355864822022807
    -3.6432336891467996   -6.3102066815644058    2.0355982638038488
   H    O 
    24    12
Direct
  0.0417299610166209  0.1427608909283519  0.7915774007792062
  0.1427680611275876  0.7915785915628715  0.0417317892029792
  0.2084244239100657  0.9582696077255722  0.8572374346983102
  0.8572350558195176  0.2084160573944421  0.9582675219336962
  0.9582716210452994  0.8572356769430590  0.2084223057876130
  0.7915816778372947  0.0417313786379989  0.1427685637299687
  0.2003649178552894  0.4282444373520121  0.9886982039000390
  0.4282499527937308  0.9886992358244837  0.2003662845089526
  0.0113012312037695  0.7996315348675096  0.5717550576708110
  0.5717540416622461  0.0112988703614195  0.7996373748243715
  0.7996319490721441  0.5717546678268265  0.0112958346435884
  0.9887033747791455  0.2003660744512428  0.4282498688383045
  0.7300050193229334  0.4043379177673179  0.4108557288219025
  0.4043330100851518  0.4108557490000582  0.7299912360532042
  0.5891440371148630  0.2700012020535050  0.5956593142402075
  0.5956628821579520  0.5891457707362442  0.2700056630302723
  0.2699982305812361  0.5956646166907655  0.5891381293772182
  0.4108514321089825  0.7299943309239030  0.4043355691597703
  0.7429432932173677  0.3667692349774695  0.1981219214401509
  0.3667639746936614  0.1981224737308027  0.7429312292265711
  0.8018774271029903  0.2570618314481227  0.6332313165212906
  0.6332352097224390  0.8018823173452968  0.2570717847082057
  0.2570690808702716  0.6332377985754106  0.8018782326070751
  0.1981166726770654  0.7429317146605271  0.3667620002057119
  0.0260840778499514  0.2716329902032067  0.8557413748070384
  0.2716378623865636  0.8557402603120603  0.0260849975385881
  0.1442623426454805  0.9739146367996704  0.7283641123937789
  0.7283654856396415  0.1442599613228063  0.9739172289816869
  0.9739152389483979  0.7283634007785307  0.1442612136417451
  0.8557432251380824  0.0260847264910200  0.2716393311420153
  0.7499948354554213  0.4761220747117623  0.3297223306309073
  0.4761162853319895  0.3297218122988571  0.7499804048881797
  0.6702786741690990  0.2500116727401516  0.5238775886294020
  0.5238825435295099  0.6702834609646426  0.2500237520137584
  0.2500180978591530  0.5238852800971686  0.6702779956234707
  0.3297196488067267  0.7499877414960187  0.4761199037993830
 
  0.00000000E+00  0.00000000E+00  0.00000000E+00
  0.00000000E+00  0.00000000E+00  0.00000000E+00
  0.00000000E+00  0.00000000E+00  0.00000000E+00
  0.00000000E+00  0.00000000E+00  0.00000000E+00
  0.00000000E+00  0.00000000E+00  0.00000000E+00
  0.00000000E+00  0.00000000E+00  0.00000000E+00
  0.00000000E+00  0.00000000E+00  0.00000000E+00
  0.00000000E+00  0.00000000E+00  0.00000000E+00
  0.00000000E+00  0.00000000E+00  0.00000000E+00
  0.00000000E+00  0.00000000E+00  0.00000000E+00
  0.00000000E+00  0.00000000E+00  0.00000000E+00
  0.00000000E+00  0.00000000E+00  0.00000000E+00
  0.00000000E+00  0.00000000E+00  0.00000000E+00
  0.00000000E+00  0.00000000E+00  0.00000000E+00
  0.00000000E+00  0.00000000E+00  0.00000000E+00
  0.00000000E+00  0.00000000E+00  0.00000000E+00
  0.00000000E+00  0.00000000E+00  0.00000000E+00
  0.00000000E+00  0.00000000E+00  0.00000000E+00
  0.00000000E+00  0.00000000E+00  0.00000000E+00
  0.00000000E+00  0.00000000E+00  0.00000000E+00
  0.00000000E+00  0.00000000E+00  0.00000000E+00
  0.00000000E+00  0.00000000E+00  0.00000000E+00
  0.00000000E+00  0.00000000E+00  0.00000000E+00
  0.00000000E+00  0.00000000E+00  0.00000000E+00
  0.00000000E+00  0.00000000E+00  0.00000000E+00
  0.00000000E+00  0.00000000E+00  0.00000000E+00
  0.00000000E+00  0.00000000E+00  0.00000000E+00
  0.00000000E+00  0.00000000E+00  0.00000000E+00
  0.00000000E+00  0.00000000E+00  0.00000000E+00
  0.00000000E+00  0.00000000E+00  0.00000000E+00
  0.00000000E+00  0.00000000E+00  0.00000000E+00
  0.00000000E+00  0.00000000E+00  0.00000000E+00
  0.00000000E+00  0.00000000E+00  0.00000000E+00
  0.00000000E+00  0.00000000E+00  0.00000000E+00
  0.00000000E+00  0.00000000E+00  0.00000000E+00
  0.00000000E+00  0.00000000E+00  0.00000000E+00
