H2O                                     
   1.00000000000000     
    11.1952813145943200    0.0000000000000000    0.0238999711507289
     0.0000000000000000    4.3838087963299941    0.0000000000000000
    -5.4975840004812477    0.0000000000000000    9.8630354004575089
   H    O 
    36    18
Direct
  0.0844001369079934  0.0965695977176459  0.8209550532708756
  0.9155998630919854  0.5965695977176743  0.1790449467286198
  0.0173553493462468  0.3321340821862829  0.8785228518266632
  0.9826446506537320  0.8321340821860839  0.1214771481736353
  0.7634856964046517  0.9339122311733963  0.0890866764423142
  0.2365143035956467  0.4339122311730195  0.9109133235577072
  0.6356115498892152  0.9451112969907892  0.1151597908499975
  0.3643884501107920  0.4451112969903842  0.8848402091496046
  0.1773375918987748  0.7651793206864890  0.7595638433833624
  0.8226624081009196  0.2651793206860912  0.2404361566168294
  0.1207799640858205  0.0008189341761711  0.6371022158328800
  0.8792200359145846  0.5008189341761854  0.3628977841670204
  0.0498851696175071  0.2075608427800398  0.4271075265127562
  0.9501148303824432  0.7075608427801322  0.5728924734874500
  0.1947187660075745  0.3401571724969874  0.5200951471130963
  0.8052812339929228  0.8401571724971792  0.4799048528873017
  0.4191700410668358  0.7549137266373032  0.0472675385166187
  0.5808299589329582  0.2549137266375020  0.9527324614833599
  0.4789392175004797  0.9906204782560936  0.1713409825789684
  0.5210607824996197  0.4906204782563706  0.8286590174215290
  0.1230612679435664  0.0400258006978399  0.0484303516171856
  0.8769387320567320  0.5400258006977900  0.9515696483827788
  0.1725621354087499  0.1693174539563600  0.1930991990384394
  0.8274378645908521  0.6693174539561610  0.8069008009612550
  0.2249943768337664  0.6689977682019345  0.2206631476622483
  0.7750056231663331  0.1689977682016290  0.7793368523382420
  0.3499880196379228  0.4352294010046464  0.2793779213474897
  0.6500119803623756  0.9352294010043408  0.7206220786521053
  0.5045265318451260  0.4906466255390498  0.2252250285604818
  0.4954734681548669  0.9906466255390497  0.7747749714395110
  0.5690293314209465  0.2617607991168567  0.3502869746437156
  0.4309706685786485  0.7617607991171623  0.6497130253563765
  0.2232630074310792  0.8398728452193310  0.4976092794585894
  0.7767369925687218  0.3398728452189331  0.5023907205415029
  0.2816028255356754  0.6082051775634036  0.4293535110670795
  0.7183971744641255  0.1082051775639083  0.5706464889331123
  0.1010145417476527  0.2171974449271437  0.9008375599720672
  0.8989854582524540  0.7171974449275487  0.0991624400282881
  0.6999475021751779  0.0702214357960662  0.1002394135723827
  0.3000524978244172  0.5702214357961017  0.8997605864280080
  0.0968781377983472  0.8841184806127024  0.6969488541719063
  0.9031218622016529  0.3841184806123967  0.3030511458278876
  0.1383409476435986  0.1571366847356984  0.5058273143261179
  0.8616590523561953  0.6571366847355066  0.4941726856736761
  0.4995977205727543  0.8083693538391815  0.1336507417192800
  0.5004022794274448  0.3083693538391814  0.8663492582808195
  0.1318335815319757  0.9871606638033105  0.1368741396265610
  0.8681664184679249  0.4871606638031968  0.8631258603730410
  0.2645325024286263  0.4898499136197322  0.2793461570109914
  0.7354674975715726  0.9898499136200306  0.7206538429892076
  0.4855366220680156  0.3095595834392297  0.2649356228218691
  0.5144633779317855  0.8095595834395281  0.7350643771783300
  0.2813144843603158  0.6588182886106275  0.5143342246841474
  0.7186855156397908  0.1588182886111248  0.4856657753153553
 
  0.00000000E+00  0.00000000E+00  0.00000000E+00
  0.00000000E+00  0.00000000E+00  0.00000000E+00
  0.00000000E+00  0.00000000E+00  0.00000000E+00
  0.00000000E+00  0.00000000E+00  0.00000000E+00
  0.00000000E+00  0.00000000E+00  0.00000000E+00
  0.00000000E+00  0.00000000E+00  0.00000000E+00
  0.00000000E+00  0.00000000E+00  0.00000000E+00
  0.00000000E+00  0.00000000E+00  0.00000000E+00
  0.00000000E+00  0.00000000E+00  0.00000000E+00
  0.00000000E+00  0.00000000E+00  0.00000000E+00
  0.00000000E+00  0.00000000E+00  0.00000000E+00
  0.00000000E+00  0.00000000E+00  0.00000000E+00
  0.00000000E+00  0.00000000E+00  0.00000000E+00
  0.00000000E+00  0.00000000E+00  0.00000000E+00
  0.00000000E+00  0.00000000E+00  0.00000000E+00
  0.00000000E+00  0.00000000E+00  0.00000000E+00
  0.00000000E+00  0.00000000E+00  0.00000000E+00
  0.00000000E+00  0.00000000E+00  0.00000000E+00
  0.00000000E+00  0.00000000E+00  0.00000000E+00
  0.00000000E+00  0.00000000E+00  0.00000000E+00
  0.00000000E+00  0.00000000E+00  0.00000000E+00
  0.00000000E+00  0.00000000E+00  0.00000000E+00
  0.00000000E+00  0.00000000E+00  0.00000000E+00
  0.00000000E+00  0.00000000E+00  0.00000000E+00
  0.00000000E+00  0.00000000E+00  0.00000000E+00
  0.00000000E+00  0.00000000E+00  0.00000000E+00
  0.00000000E+00  0.00000000E+00  0.00000000E+00
  0.00000000E+00  0.00000000E+00  0.00000000E+00
  0.00000000E+00  0.00000000E+00  0.00000000E+00
  0.00000000E+00  0.00000000E+00  0.00000000E+00
  0.00000000E+00  0.00000000E+00  0.00000000E+00
  0.00000000E+00  0.00000000E+00  0.00000000E+00
  0.00000000E+00  0.00000000E+00  0.00000000E+00
  0.00000000E+00  0.00000000E+00  0.00000000E+00
  0.00000000E+00  0.00000000E+00  0.00000000E+00
  0.00000000E+00  0.00000000E+00  0.00000000E+00
  0.00000000E+00  0.00000000E+00  0.00000000E+00
  0.00000000E+00  0.00000000E+00  0.00000000E+00
  0.00000000E+00  0.00000000E+00  0.00000000E+00
  0.00000000E+00  0.00000000E+00  0.00000000E+00
  0.00000000E+00  0.00000000E+00  0.00000000E+00
  0.00000000E+00  0.00000000E+00  0.00000000E+00
  0.00000000E+00  0.00000000E+00  0.00000000E+00
  0.00000000E+00  0.00000000E+00  0.00000000E+00
  0.00000000E+00  0.00000000E+00  0.00000000E+00
  0.00000000E+00  0.00000000E+00  0.00000000E+00
  0.00000000E+00  0.00000000E+00  0.00000000E+00
  0.00000000E+00  0.00000000E+00  0.00000000E+00
  0.00000000E+00  0.00000000E+00  0.00000000E+00
  0.00000000E+00  0.00000000E+00  0.00000000E+00
  0.00000000E+00  0.00000000E+00  0.00000000E+00
  0.00000000E+00  0.00000000E+00  0.00000000E+00
  0.00000000E+00  0.00000000E+00  0.00000000E+00
  0.00000000E+00  0.00000000E+00  0.00000000E+00
