H2O                                     
   1.00000000000000     
     7.5578865670939317   -0.0088468776809522    0.0056650055598216
     0.0592059261948812    7.5292629749199369    0.0060421714722403
    -0.0396320924157656   -0.2343768832336974    7.5471476571839586
   H    O 
    32    16
Direct
  0.0488877214010982  0.2151181528281424  0.1047590479828108
  0.2214386481669844  0.1224059307014853  0.0241664698436881
  0.4943747168995749  0.9861204269548905  0.5116728664191470
  0.4884437918297535  0.8003415978521846  0.5981786866435562
  0.9874276858191173  0.9707950058380435  0.9727843887093111
  0.8970115613623135  0.9596049097944728  0.7874441729918633
  0.4845661874213834  0.5298819460185106  0.0087911437102949
  0.4758062110775294  0.7178993387048830  0.0990545025393271
  0.0410501992810447  0.2792632676860372  0.6012874907063401
  0.1219279059707195  0.4550181262186608  0.6926383318681538
  0.5444028532147954  0.2253123909965373  0.3691340505577240
  0.6239345697753500  0.0503759630928801  0.2751255836624541
  0.7259036645747213  0.3917045633333672  0.9460174024176656
  0.6331490360883024  0.4715356223181849  0.7744455664988383
  0.9849844609369527  0.5207345153705977  0.4581137179181514
  0.9826404981322291  0.7076523365713747  0.3751285335840737
  0.2926031468294061  0.3939325642189910  0.4383987230962349
  0.3877166906177473  0.4824088255568130  0.2728316225977194
  0.0481537973148155  0.7091269553109596  0.8722150052110811
  0.2236134001546615  0.6191839223355260  0.9485040394823130
  0.7247166265361211  0.6167251616424588  0.5226318427484909
  0.5383410708594074  0.5306630114892090  0.5130416404348732
  0.2321977943976835  0.8901164145120295  0.4499160673545698
  0.1350938470737271  0.9699503832286294  0.2818096108945053
  0.4772029714669653  0.2175865932090051  0.8680948446908926
  0.3988927623440208  0.0431065656687053  0.7735692386812355
  0.9003668316736577  0.4716937675884583  0.1896968083629283
  0.9910507030002693  0.4734932590768065  0.0049746488462999
  0.8021339499493346  0.1112940401609881  0.5296485328376548
  0.9847558840236541  0.0143439726135492  0.5196667674464940
  0.7156925134539956  0.8940782072333320  0.0230905048318571
  0.5306657633072008  0.9858018217987270  0.0139662405061803
  0.1187524544506008  0.1043423807311416  0.1005609068067980
  0.4191938280244646  0.9099792316502652  0.5839720520916762
  0.9126180591079825  0.8932062234922592  0.8965644585798801
  0.4080553875167479  0.6076086308807739  0.0837095267422868
  0.1115937075706310  0.3858671163005627  0.5808279693558864
  0.6178158276049327  0.1194602706730041  0.3877153059995411
  0.6145673244049618  0.3986637231031833  0.8787243490346853
  0.9108765339919694  0.6007319258308033  0.3874398131488034
  0.4050195864739780  0.4083138284641346  0.3764547757193060
  0.1172554785898938  0.5979188636750117  0.8755163825666714
  0.6157462489313620  0.6031769937844432  0.5914571051127380
  0.1198492273163792  0.8941005655019634  0.3839556032675425
  0.4017070492206575  0.1138756244400593  0.8852382956704863
  0.9149436304173781  0.4004084726001786  0.0794447515101768
  0.9098363140268052  0.0894175256457727  0.5986635565636715
  0.6057118773966089  0.9121890633025337  0.0903170537536037
 
  0.00000000E+00  0.00000000E+00  0.00000000E+00
  0.00000000E+00  0.00000000E+00  0.00000000E+00
  0.00000000E+00  0.00000000E+00  0.00000000E+00
  0.00000000E+00  0.00000000E+00  0.00000000E+00
  0.00000000E+00  0.00000000E+00  0.00000000E+00
  0.00000000E+00  0.00000000E+00  0.00000000E+00
  0.00000000E+00  0.00000000E+00  0.00000000E+00
  0.00000000E+00  0.00000000E+00  0.00000000E+00
  0.00000000E+00  0.00000000E+00  0.00000000E+00
  0.00000000E+00  0.00000000E+00  0.00000000E+00
  0.00000000E+00  0.00000000E+00  0.00000000E+00
  0.00000000E+00  0.00000000E+00  0.00000000E+00
  0.00000000E+00  0.00000000E+00  0.00000000E+00
  0.00000000E+00  0.00000000E+00  0.00000000E+00
  0.00000000E+00  0.00000000E+00  0.00000000E+00
  0.00000000E+00  0.00000000E+00  0.00000000E+00
  0.00000000E+00  0.00000000E+00  0.00000000E+00
  0.00000000E+00  0.00000000E+00  0.00000000E+00
  0.00000000E+00  0.00000000E+00  0.00000000E+00
  0.00000000E+00  0.00000000E+00  0.00000000E+00
  0.00000000E+00  0.00000000E+00  0.00000000E+00
  0.00000000E+00  0.00000000E+00  0.00000000E+00
  0.00000000E+00  0.00000000E+00  0.00000000E+00
  0.00000000E+00  0.00000000E+00  0.00000000E+00
  0.00000000E+00  0.00000000E+00  0.00000000E+00
  0.00000000E+00  0.00000000E+00  0.00000000E+00
  0.00000000E+00  0.00000000E+00  0.00000000E+00
  0.00000000E+00  0.00000000E+00  0.00000000E+00
  0.00000000E+00  0.00000000E+00  0.00000000E+00
  0.00000000E+00  0.00000000E+00  0.00000000E+00
  0.00000000E+00  0.00000000E+00  0.00000000E+00
  0.00000000E+00  0.00000000E+00  0.00000000E+00
  0.00000000E+00  0.00000000E+00  0.00000000E+00
  0.00000000E+00  0.00000000E+00  0.00000000E+00
  0.00000000E+00  0.00000000E+00  0.00000000E+00
  0.00000000E+00  0.00000000E+00  0.00000000E+00
  0.00000000E+00  0.00000000E+00  0.00000000E+00
  0.00000000E+00  0.00000000E+00  0.00000000E+00
  0.00000000E+00  0.00000000E+00  0.00000000E+00
  0.00000000E+00  0.00000000E+00  0.00000000E+00
  0.00000000E+00  0.00000000E+00  0.00000000E+00
  0.00000000E+00  0.00000000E+00  0.00000000E+00
  0.00000000E+00  0.00000000E+00  0.00000000E+00
  0.00000000E+00  0.00000000E+00  0.00000000E+00
  0.00000000E+00  0.00000000E+00  0.00000000E+00
  0.00000000E+00  0.00000000E+00  0.00000000E+00
  0.00000000E+00  0.00000000E+00  0.00000000E+00
  0.00000000E+00  0.00000000E+00  0.00000000E+00
