H2O                                     
   1.00000000000000     
     7.3818210472569410    0.0000000000000000    0.1904993150607229
     0.0000000000000000    3.3663325340529342    0.0000000000000000
    -1.5484465071529727    0.0000000000000000    4.4699800971909225
   H    O 
    12     6
Direct
  0.4377913630863404  0.0856377676092563  0.4541129947955156
  0.4377913630861343  0.9143622323907152  0.9541129947953237
  0.3303407434175796  0.4173370024796270  0.2401654618683011
  0.3303407434179846  0.5826629975199751  0.7401654618685996
  0.6627294708178866  0.5767874596715998  0.7156276537555328
  0.6627294708175882  0.4232125403280023  0.2156276537557318
  0.7710263153174068  0.9101575022782669  0.6060471629393618
  0.7710263153173074  0.0898424977219747  0.1060471629388644
  0.1044425434275311  0.0883007566710745  0.7748756480836221
  0.1044425434277301  0.9116992433289610  0.2748756480836221
  0.9960492095644753  0.4155033057255295  0.5565214326255798
  0.9960492095645606  0.5844966942746694  0.0565214326258854
  0.3237512181447997  0.2500662562527722  0.4049602988069765
  0.3237512181451976  0.7499337437467304  0.9049602988064791
  0.6566752869395458  0.7468359213570537  0.5461028037473525
  0.6566752869394463  0.2531640786433442  0.0461028037477575
  0.9897638492844791  0.2507532890856723  0.7227765433776767
  0.9897638492840528  0.7492467109140222  0.2227765433777833
 
  0.00000000E+00  0.00000000E+00  0.00000000E+00
  0.00000000E+00  0.00000000E+00  0.00000000E+00
  0.00000000E+00  0.00000000E+00  0.00000000E+00
  0.00000000E+00  0.00000000E+00  0.00000000E+00
  0.00000000E+00  0.00000000E+00  0.00000000E+00
  0.00000000E+00  0.00000000E+00  0.00000000E+00
  0.00000000E+00  0.00000000E+00  0.00000000E+00
  0.00000000E+00  0.00000000E+00  0.00000000E+00
  0.00000000E+00  0.00000000E+00  0.00000000E+00
  0.00000000E+00  0.00000000E+00  0.00000000E+00
  0.00000000E+00  0.00000000E+00  0.00000000E+00
  0.00000000E+00  0.00000000E+00  0.00000000E+00
  0.00000000E+00  0.00000000E+00  0.00000000E+00
  0.00000000E+00  0.00000000E+00  0.00000000E+00
  0.00000000E+00  0.00000000E+00  0.00000000E+00
  0.00000000E+00  0.00000000E+00  0.00000000E+00
  0.00000000E+00  0.00000000E+00  0.00000000E+00
  0.00000000E+00  0.00000000E+00  0.00000000E+00
