H2O                                     
   1.00000000000000     
    10.5012784387374420   -6.0629355876687878    0.0000000000000000
     0.0000170210611836   12.1258416939948006    0.0000000000000000
    -0.0000000000000000    0.0000000000000000    4.4689714612852622
   H    O 
    24    12
Direct
  0.6082055761091993  0.3528733207377887  0.3410325424176653
  0.3917944238904027  0.6471266792621119  0.8410325424177649
  0.3528733207378881  0.7446677446282766  0.1743658757510934
  0.6471266792621119  0.2553322553717163  0.6743658757510935
  0.7446677446282766  0.3917944238904027  0.0076992090844291
  0.2553322553717163  0.6082055761095972  0.5076992090844292
  0.5126146494978658  0.3267125269173178  0.5994584601312029
  0.4873853505021342  0.6732874730830730  0.0994584601314018
  0.3267125269169270  0.8140978774190398  0.4327917934647304
  0.6732874730830730  0.1859021225809601  0.9327917934647304
  0.8140978774190398  0.4873853505021342  0.2661251267980661
  0.1859021225809601  0.5126146494978658  0.7661251267980661
  0.5086325378687202  0.1357020663315261  0.2542697565228636
  0.4913674621314928  0.8642979336687795  0.7542697565228706
  0.1357020663312206  0.6270695284626850  0.0876030898561993
  0.8642979336687795  0.3729304715373078  0.5876030898561992
  0.6270695284626850  0.4913674621314928  0.9209364231895349
  0.3729304715373078  0.5086325378685213  0.4209364231895350
  0.5227755817797967  0.0209691247543849  0.3478686226426602
  0.4772244182206013  0.9790308752456364  0.8478686226423547
  0.0209691247543636  0.4981935429749507  0.1812019559756904
  0.9790308752456364  0.5018064570250492  0.6812019559756904
  0.4981935429749507  0.4772244182206013  0.0145352893090261
  0.5018064570250492  0.5227755817793988  0.5145352893090261
  0.5422398614138509  0.2843975002342304  0.4636095625721405
  0.4577601385862484  0.7156024997655637  0.9636095625721476
  0.2843975002344293  0.7421576388206705  0.2969428959054691
  0.7156024997655637  0.2578423611793293  0.7969428959054762
  0.7421576388206705  0.4577601385862484  0.1302762292387977
  0.2578423611793293  0.5422398614137515  0.6302762292388048
  0.5303151853943403  0.0742173440774092  0.1757110557134893
  0.4696848146054606  0.9257826559225908  0.6757110557134965
  0.0742173440774092  0.5439021586828556  0.0090443890468179
  0.9257826559225908  0.4560978413171443  0.5090443890468251
  0.5439021586828556  0.4696848146054606  0.8423777223801608
  0.4560978413171443  0.5303151853945393  0.3423777223801536
 
  0.00000000E+00  0.00000000E+00  0.00000000E+00
  0.00000000E+00  0.00000000E+00  0.00000000E+00
  0.00000000E+00  0.00000000E+00  0.00000000E+00
  0.00000000E+00  0.00000000E+00  0.00000000E+00
  0.00000000E+00  0.00000000E+00  0.00000000E+00
  0.00000000E+00  0.00000000E+00  0.00000000E+00
  0.00000000E+00  0.00000000E+00  0.00000000E+00
  0.00000000E+00  0.00000000E+00  0.00000000E+00
  0.00000000E+00  0.00000000E+00  0.00000000E+00
  0.00000000E+00  0.00000000E+00  0.00000000E+00
  0.00000000E+00  0.00000000E+00  0.00000000E+00
  0.00000000E+00  0.00000000E+00  0.00000000E+00
  0.00000000E+00  0.00000000E+00  0.00000000E+00
  0.00000000E+00  0.00000000E+00  0.00000000E+00
  0.00000000E+00  0.00000000E+00  0.00000000E+00
  0.00000000E+00  0.00000000E+00  0.00000000E+00
  0.00000000E+00  0.00000000E+00  0.00000000E+00
  0.00000000E+00  0.00000000E+00  0.00000000E+00
  0.00000000E+00  0.00000000E+00  0.00000000E+00
  0.00000000E+00  0.00000000E+00  0.00000000E+00
  0.00000000E+00  0.00000000E+00  0.00000000E+00
  0.00000000E+00  0.00000000E+00  0.00000000E+00
  0.00000000E+00  0.00000000E+00  0.00000000E+00
  0.00000000E+00  0.00000000E+00  0.00000000E+00
  0.00000000E+00  0.00000000E+00  0.00000000E+00
  0.00000000E+00  0.00000000E+00  0.00000000E+00
  0.00000000E+00  0.00000000E+00  0.00000000E+00
  0.00000000E+00  0.00000000E+00  0.00000000E+00
  0.00000000E+00  0.00000000E+00  0.00000000E+00
  0.00000000E+00  0.00000000E+00  0.00000000E+00
  0.00000000E+00  0.00000000E+00  0.00000000E+00
  0.00000000E+00  0.00000000E+00  0.00000000E+00
  0.00000000E+00  0.00000000E+00  0.00000000E+00
  0.00000000E+00  0.00000000E+00  0.00000000E+00
  0.00000000E+00  0.00000000E+00  0.00000000E+00
  0.00000000E+00  0.00000000E+00  0.00000000E+00
