H2O                                     
   1.00000000000000     
     7.8165433039880741    0.0011956320859049   -0.0109397983169625
     0.0121228529549892    7.8166782897353126    0.0267803553010427
     0.0043426126525671   -0.0241139536696081    6.5325593187568387
   H    O 
    32    16
Direct
  0.5445763031963309  0.3763531100266711  0.3324499546565851
  0.7182296888034594  0.4702650986555132  0.3031222704421357
  0.6181297994403484  0.5536502217542170  0.5832794678603375
  0.6996655895867876  0.7190414105795238  0.6804720341708387
  0.4321908743275097  0.6289425986660248  0.8358764702614702
  0.2652474069296374  0.7131076318060219  0.9253826048824605
  0.3522871631677741  0.4476951010830996  0.0871915190570244
  0.2752507139176361  0.2810710712652978  0.1872659728151331
  0.4610649959333447  0.7682630507630493  0.4890724050289950
  0.3654310436338949  0.9407073205329053  0.4581996384433053
  0.2169272074457833  0.4743072735376627  0.7332421838659126
  0.0483496378215604  0.3724872388666958  0.7022235246594759
  0.5154865783178969  0.2341989686655782  0.9915976464017682
  0.6125632606857186  0.0619098993904328  0.9612907819266029
  0.8521756254223397  0.5185835554390384  0.0213548085249393
  0.9339557108883193  0.6268242352781123  0.2013357013054840
  0.4354880890421972  0.1324793887551406  0.7087333610584383
  0.2690702197407751  0.2115454991066417  0.6116061542596910
  0.7833007093527864  0.2744545929230854  0.8677468152325230
  0.9595529591812505  0.2687557989407216  0.9843756732427230
  0.5443388122338199  0.8663055031842904  0.2045195321699082
  0.7108802150756836  0.7893335823433517  0.1038691376029580
  0.1151443283847006  0.5593985474695919  0.4557373194612572
  0.1969325889651764  0.7257251909007294  0.3637275080215304
  0.7538239541383548  0.2024233989178072  0.4219461977134358
  0.7506276919763676  0.0258330882199083  0.3050067767846797
  0.9606900909589946  0.7716223485007595  0.5578715508610896
  0.8580708672225369  0.9396065231320213  0.5891483862238867
  0.2219340358521682  0.9778774279829749  0.8074720038933207
  0.0509546709299986  0.8799429594697438  0.8325858135341356
  0.0003732391234757  0.1369409878355529  0.2709189902940202
  0.1111469562075004  0.0592613797987010  0.0899180557925685
  0.6539506886167887  0.4001091895597418  0.4018746738396328
  0.5914211704636546  0.6569702164765062  0.6635121525829148
  0.3247705915864809  0.6032815647961094  0.9079690053574297
  0.3823032288063039  0.3431265476454791  0.1629955587793271
  0.3913995016389998  0.8318188485292695  0.3891778141894141
  0.1555448417514806  0.4033799348849831  0.6325119001472139
  0.5873452075050030  0.1714851708164865  0.8931109486850146
  0.8261103313437308  0.6014849931931783  0.1298023224808462
  0.3326712197271148  0.1039584215531647  0.6287113473404951
  0.8940793632651729  0.3328658930064530  0.8809081676255219
  0.6466822653859206  0.8961232877406479  0.1245268505549753
  0.0880118463491279  0.6642585974116835  0.3785532247763994
  0.8141016853918842  0.0924924869897800  0.4075519199233799
  0.8911487271635060  0.8333520835599008  0.6596676505172958
  0.1572139679801907  0.9084106706162227  0.9062574970836597
  0.0859843351209765  0.1648780894298650  0.1663387056672544
 
  0.00000000E+00  0.00000000E+00  0.00000000E+00
  0.00000000E+00  0.00000000E+00  0.00000000E+00
  0.00000000E+00  0.00000000E+00  0.00000000E+00
  0.00000000E+00  0.00000000E+00  0.00000000E+00
  0.00000000E+00  0.00000000E+00  0.00000000E+00
  0.00000000E+00  0.00000000E+00  0.00000000E+00
  0.00000000E+00  0.00000000E+00  0.00000000E+00
  0.00000000E+00  0.00000000E+00  0.00000000E+00
  0.00000000E+00  0.00000000E+00  0.00000000E+00
  0.00000000E+00  0.00000000E+00  0.00000000E+00
  0.00000000E+00  0.00000000E+00  0.00000000E+00
  0.00000000E+00  0.00000000E+00  0.00000000E+00
  0.00000000E+00  0.00000000E+00  0.00000000E+00
  0.00000000E+00  0.00000000E+00  0.00000000E+00
  0.00000000E+00  0.00000000E+00  0.00000000E+00
  0.00000000E+00  0.00000000E+00  0.00000000E+00
  0.00000000E+00  0.00000000E+00  0.00000000E+00
  0.00000000E+00  0.00000000E+00  0.00000000E+00
  0.00000000E+00  0.00000000E+00  0.00000000E+00
  0.00000000E+00  0.00000000E+00  0.00000000E+00
  0.00000000E+00  0.00000000E+00  0.00000000E+00
  0.00000000E+00  0.00000000E+00  0.00000000E+00
  0.00000000E+00  0.00000000E+00  0.00000000E+00
  0.00000000E+00  0.00000000E+00  0.00000000E+00
  0.00000000E+00  0.00000000E+00  0.00000000E+00
  0.00000000E+00  0.00000000E+00  0.00000000E+00
  0.00000000E+00  0.00000000E+00  0.00000000E+00
  0.00000000E+00  0.00000000E+00  0.00000000E+00
  0.00000000E+00  0.00000000E+00  0.00000000E+00
  0.00000000E+00  0.00000000E+00  0.00000000E+00
  0.00000000E+00  0.00000000E+00  0.00000000E+00
  0.00000000E+00  0.00000000E+00  0.00000000E+00
  0.00000000E+00  0.00000000E+00  0.00000000E+00
  0.00000000E+00  0.00000000E+00  0.00000000E+00
  0.00000000E+00  0.00000000E+00  0.00000000E+00
  0.00000000E+00  0.00000000E+00  0.00000000E+00
  0.00000000E+00  0.00000000E+00  0.00000000E+00
  0.00000000E+00  0.00000000E+00  0.00000000E+00
  0.00000000E+00  0.00000000E+00  0.00000000E+00
  0.00000000E+00  0.00000000E+00  0.00000000E+00
  0.00000000E+00  0.00000000E+00  0.00000000E+00
  0.00000000E+00  0.00000000E+00  0.00000000E+00
  0.00000000E+00  0.00000000E+00  0.00000000E+00
  0.00000000E+00  0.00000000E+00  0.00000000E+00
  0.00000000E+00  0.00000000E+00  0.00000000E+00
  0.00000000E+00  0.00000000E+00  0.00000000E+00
  0.00000000E+00  0.00000000E+00  0.00000000E+00
  0.00000000E+00  0.00000000E+00  0.00000000E+00
