H2O                                     
   1.00000000000000     
     5.4513383409680909    0.0000000000000000    0.2293099403756559
     0.0000000000000000    4.5442731023797789    0.0000000000000000
    -5.4548984042325896    0.0000000000000000   13.9739170020762415
   H    O 
    32    16
Direct
  0.7068565285130178  0.5744428739017546  0.3327766216890251
  0.2931434714866838  0.4255571260987427  0.6672233783105771
  0.7068565285133234  0.9255571260987427  0.8327766216894229
  0.2931434714866838  0.0744428739012573  0.1672233783105700
  0.7063674586707521  0.9179872177249495  0.3330349011213505
  0.2936325413289423  0.0820127822745744  0.6669650988784577
  0.7063674586710506  0.5820127822745744  0.8330349011215423
  0.2936325413289423  0.4179872177254255  0.1669650988784506
  0.2685333942986195  0.0611367700690672  0.4272031729819405
  0.7314666057010962  0.9388632299309470  0.5727968270178534
  0.2685333942989108  0.4388632299309470  0.9272031729821466
  0.7314666057010962  0.5611367700690530  0.0727968270178605
  0.4942943911297297  0.2502760477599527  0.4183339423172941
  0.5057056088704693  0.7497239522401397  0.5816660576831039
  0.4942943911295308  0.2497239522401397  0.9183339423168961
  0.5057056088704693  0.7502760477598603  0.0816660576831038
  0.7738220347737506  0.4371278617286777  0.5523634287683341
  0.2261779652259510  0.5628721382717272  0.4476365712315805
  0.7738220347740490  0.0628721382717273  0.0523634287684195
  0.2261779652259510  0.9371278617282728  0.9476365712315664
  0.0070878947251507  0.2542447618678485  0.5456422444632627
  0.9929121052744656  0.7457552381325423  0.4543577555368297
  0.0070878947255344  0.2457552381325494  0.0456422444631703
  0.9929121052744656  0.7542447618674577  0.9543577555368368
  0.9851467080668208  0.2542052128183434  0.2949700506069501
  0.0148532919334990  0.7457947871811663  0.7050299493925454
  0.9851467080665011  0.2457947871811592  0.7949700506074546
  0.0148532919334990  0.7542052128188337  0.2050299493925453
  0.6994973291551746  0.2511846214397522  0.2179623882057336
  0.3005026708452233  0.7488153785607452  0.7820376117946642
  0.6994973291547767  0.2488153785607452  0.7179623882053358
  0.3005026708452233  0.7511846214392548  0.2820376117946642
  0.6577063066268306  0.7458450197288177  0.3624968611919687
  0.3422936933732689  0.2541549802712819  0.6375031388079317
  0.6577063066267311  0.7541549802712818  0.8624968611920683
  0.3422936933732689  0.2458450197287252  0.1375031388079318
  0.3067777159622881  0.2404492626903143  0.3972419251537501
  0.6932222840380103  0.7595507373092808  0.6027580748458591
  0.3067777159619897  0.2595507373092878  0.8972419251541409
  0.6932222840380103  0.7404492626907192  0.1027580748458592
  0.8186379153015680  0.2548958705317445  0.5260155615772462
  0.1813620846988298  0.7451041294678505  0.4739844384229528
  0.8186379153011701  0.2451041294678506  0.0260155615770472
  0.1813620846988298  0.7548958705321495  0.9739844384229528
  0.8003425460786030  0.2472815938241247  0.2846291711735125
  0.1996574539217948  0.7527184061758754  0.7153708288262958
  0.8003425460782051  0.2527184061758752  0.7846291711737042
  0.1996574539217948  0.7472815938241246  0.2153708288262886
 
  0.00000000E+00  0.00000000E+00  0.00000000E+00
  0.00000000E+00  0.00000000E+00  0.00000000E+00
  0.00000000E+00  0.00000000E+00  0.00000000E+00
  0.00000000E+00  0.00000000E+00  0.00000000E+00
  0.00000000E+00  0.00000000E+00  0.00000000E+00
  0.00000000E+00  0.00000000E+00  0.00000000E+00
  0.00000000E+00  0.00000000E+00  0.00000000E+00
  0.00000000E+00  0.00000000E+00  0.00000000E+00
  0.00000000E+00  0.00000000E+00  0.00000000E+00
  0.00000000E+00  0.00000000E+00  0.00000000E+00
  0.00000000E+00  0.00000000E+00  0.00000000E+00
  0.00000000E+00  0.00000000E+00  0.00000000E+00
  0.00000000E+00  0.00000000E+00  0.00000000E+00
  0.00000000E+00  0.00000000E+00  0.00000000E+00
  0.00000000E+00  0.00000000E+00  0.00000000E+00
  0.00000000E+00  0.00000000E+00  0.00000000E+00
  0.00000000E+00  0.00000000E+00  0.00000000E+00
  0.00000000E+00  0.00000000E+00  0.00000000E+00
  0.00000000E+00  0.00000000E+00  0.00000000E+00
  0.00000000E+00  0.00000000E+00  0.00000000E+00
  0.00000000E+00  0.00000000E+00  0.00000000E+00
  0.00000000E+00  0.00000000E+00  0.00000000E+00
  0.00000000E+00  0.00000000E+00  0.00000000E+00
  0.00000000E+00  0.00000000E+00  0.00000000E+00
  0.00000000E+00  0.00000000E+00  0.00000000E+00
  0.00000000E+00  0.00000000E+00  0.00000000E+00
  0.00000000E+00  0.00000000E+00  0.00000000E+00
  0.00000000E+00  0.00000000E+00  0.00000000E+00
  0.00000000E+00  0.00000000E+00  0.00000000E+00
  0.00000000E+00  0.00000000E+00  0.00000000E+00
  0.00000000E+00  0.00000000E+00  0.00000000E+00
  0.00000000E+00  0.00000000E+00  0.00000000E+00
  0.00000000E+00  0.00000000E+00  0.00000000E+00
  0.00000000E+00  0.00000000E+00  0.00000000E+00
  0.00000000E+00  0.00000000E+00  0.00000000E+00
  0.00000000E+00  0.00000000E+00  0.00000000E+00
  0.00000000E+00  0.00000000E+00  0.00000000E+00
  0.00000000E+00  0.00000000E+00  0.00000000E+00
  0.00000000E+00  0.00000000E+00  0.00000000E+00
  0.00000000E+00  0.00000000E+00  0.00000000E+00
  0.00000000E+00  0.00000000E+00  0.00000000E+00
  0.00000000E+00  0.00000000E+00  0.00000000E+00
  0.00000000E+00  0.00000000E+00  0.00000000E+00
  0.00000000E+00  0.00000000E+00  0.00000000E+00
  0.00000000E+00  0.00000000E+00  0.00000000E+00
  0.00000000E+00  0.00000000E+00  0.00000000E+00
  0.00000000E+00  0.00000000E+00  0.00000000E+00
  0.00000000E+00  0.00000000E+00  0.00000000E+00
