H2O                                     
   1.00000000000000     
     7.6072471009708433    0.0000000000000000    0.0000000000000000
     0.0000000000000000    7.6072471009708433    0.0000000000000000
     0.0000000000000000    0.0000000000000000    4.4109488696256278
   H    O 
    16     8
Direct
  0.2396100447437835  0.7603899552562166  0.6796544544680303
  0.2396100447440819  0.7603899552559181  0.3203455455315718
  0.2603899552559181  0.2603899552559181  0.1796544544684282
  0.2603899552559181  0.2603899552559181  0.8203455455315718
  0.7603899552559181  0.2396100447440819  0.6796544544684282
  0.7396100447440819  0.7396100447440819  0.8203455455315718
  0.7603899552559181  0.2396100447440819  0.3203455455315718
  0.7396100447440819  0.7396100447440819  0.1796544544684282
  0.1866663025174893  0.0412640666817548  0.5000000000000000
  0.9587359333182524  0.8133336974830152  0.5000000000000000
  0.5412640666817476  0.3133336974830152  0.0000000000000000
  0.0412640666817548  0.1866663025169848  0.5000000000000000
  0.8133336974830152  0.9587359333182524  0.5000000000000000
  0.4587359333182452  0.6866663025169848  0.0000000000000000
  0.6866663025169848  0.4587359333182452  0.0000000000000000
  0.3133336974830152  0.5412640666817476  0.0000000000000000
  0.1853644612057724  0.8146355387942277  0.5000000000000000
  0.3146355387937302  0.3146355387937302  0.0000000000000000
  0.8146355387937303  0.1853644612062698  0.5000000000000000
  0.6853644612062697  0.6853644612062697  0.0000000000000000
  0.1695331122734631  0.1695331122734631  0.5000000000000000
  0.8304668877268424  0.8304668877268424  0.5000000000000000
  0.6695331122731576  0.3304668877268354  0.0000000000000000
  0.3304668877268354  0.6695331122731576  0.0000000000000000
 
  0.00000000E+00  0.00000000E+00  0.00000000E+00
  0.00000000E+00  0.00000000E+00  0.00000000E+00
  0.00000000E+00  0.00000000E+00  0.00000000E+00
  0.00000000E+00  0.00000000E+00  0.00000000E+00
  0.00000000E+00  0.00000000E+00  0.00000000E+00
  0.00000000E+00  0.00000000E+00  0.00000000E+00
  0.00000000E+00  0.00000000E+00  0.00000000E+00
  0.00000000E+00  0.00000000E+00  0.00000000E+00
  0.00000000E+00  0.00000000E+00  0.00000000E+00
  0.00000000E+00  0.00000000E+00  0.00000000E+00
  0.00000000E+00  0.00000000E+00  0.00000000E+00
  0.00000000E+00  0.00000000E+00  0.00000000E+00
  0.00000000E+00  0.00000000E+00  0.00000000E+00
  0.00000000E+00  0.00000000E+00  0.00000000E+00
  0.00000000E+00  0.00000000E+00  0.00000000E+00
  0.00000000E+00  0.00000000E+00  0.00000000E+00
  0.00000000E+00  0.00000000E+00  0.00000000E+00
  0.00000000E+00  0.00000000E+00  0.00000000E+00
  0.00000000E+00  0.00000000E+00  0.00000000E+00
  0.00000000E+00  0.00000000E+00  0.00000000E+00
  0.00000000E+00  0.00000000E+00  0.00000000E+00
  0.00000000E+00  0.00000000E+00  0.00000000E+00
  0.00000000E+00  0.00000000E+00  0.00000000E+00
  0.00000000E+00  0.00000000E+00  0.00000000E+00
