H2O                                     
   1.00000000000000     
     5.8914091402526267   -0.0802697632325468   -0.1715351380105240
     0.7950254900297703    2.7000079636904841   -0.0270000350302084
     5.3511944701155629    5.8931718124960764   22.6623044540000862
   H    O 
    32    16
Direct
  0.4115843170075378  0.6227010551693317  0.4428580054707440
  0.6217412654727970  0.1440692085173072  0.4528275668723437
  0.2883326189714316  0.6243973540965845  0.9802333863688976
  0.3494282921689972  0.4319905285428820  0.9236851152724429
  0.4847509806321437  0.1619107149318190  0.8021153931539007
  0.7128747796631318  0.7335633466734161  0.8104873628783050
  0.4026891932181743  0.3050960051925094  0.5566720502430081
  0.3528512162090159  0.8824001998814534  0.6121104300362258
  0.3296291177497886  0.1396376636671881  0.3085064045188818
  0.1006223135325782  0.5569019026389646  0.3177319404334373
  0.6832896563283519  0.4587375414105425  0.1197040625342568
  0.6573766078871494  0.3320306255675233  0.0634179112139893
  0.6639136576533116  0.8966868617147000  0.7221332643864284
  0.7280621765117321  0.6747118425225502  0.6671929192176224
  0.2433089997597213  0.7897483959797024  0.2288760009876796
  0.2421390432646524  0.2575550631581699  0.1742799533675673
  0.0564748959032632  0.8811267856355461  0.8196634401625320
  0.9579422849295280  0.5147145683173583  0.8742615553994674
  0.7604995098810929  0.1189942928319876  0.3165658175792678
  0.7200093939389574  0.6784971246714768  0.3711571259304925
  0.0895559655806006  0.2390030509156084  0.4292011001083909
  0.0306164231455965  0.8089802686090218  0.4834376752632050
  0.8981572799649932  0.0594081455849277  0.1927426448313937
  0.6727649293746244  0.8448696236531743  0.2041886823856165
  0.6635725196848360  0.5762878581538814  0.9453061598382224
  0.8736667334493464  0.7539378911513750  0.9575133763679669
  0.0442075904871675  0.8797249632322033  0.6843187187453285
  0.2500066452302176  0.0773962293212164  0.6959710547253236
  0.2299006795807027  0.1008194542132428  0.0649295477918300
  0.0012483644474436  0.5277976065681663  0.0594864146972177
  0.7305245396433327  0.7172494737222392  0.5613869246737573
  0.9500405945499442  0.2598896091229127  0.5657869671229947
  0.5850298274994586  0.5134957781649987  0.4425305016294754
  0.3671824816211886  0.6974509540581419  0.9396444056768185
  0.5577875658435419  0.8256215478393403  0.7959838887847598
  0.4236824141904779  0.9384784081701608  0.5708735653471179
  0.2709416662309769  0.5044857003962836  0.3031832541844349
  0.6890469837015915  0.5973610532492840  0.0770384908846203
  0.7440697337101146  0.9500494966694477  0.6816984297062819
  0.2038251377176848  0.9257717239781507  0.1884875368569872
  0.0003077454211074  0.5687174829105380  0.8315948548833315
  0.7928075326711335  0.7506744404364660  0.3301031060648062
  0.1104056273420075  0.8722922000798390  0.4429442607877710
  0.7246338143994676  0.1618930068746573  0.1931442239926222
  0.8362004926916153  0.4786137839510286  0.9470115238653822
  0.2170221236194056  0.8018420799743220  0.6845354579189957
  0.1751165168787791  0.4683122432026632  0.0532988324129783
  0.9050477506395292  0.6290148446766965  0.5554910672456282
 
  0.00000000E+00  0.00000000E+00  0.00000000E+00
  0.00000000E+00  0.00000000E+00  0.00000000E+00
  0.00000000E+00  0.00000000E+00  0.00000000E+00
  0.00000000E+00  0.00000000E+00  0.00000000E+00
  0.00000000E+00  0.00000000E+00  0.00000000E+00
  0.00000000E+00  0.00000000E+00  0.00000000E+00
  0.00000000E+00  0.00000000E+00  0.00000000E+00
  0.00000000E+00  0.00000000E+00  0.00000000E+00
  0.00000000E+00  0.00000000E+00  0.00000000E+00
  0.00000000E+00  0.00000000E+00  0.00000000E+00
  0.00000000E+00  0.00000000E+00  0.00000000E+00
  0.00000000E+00  0.00000000E+00  0.00000000E+00
  0.00000000E+00  0.00000000E+00  0.00000000E+00
  0.00000000E+00  0.00000000E+00  0.00000000E+00
  0.00000000E+00  0.00000000E+00  0.00000000E+00
  0.00000000E+00  0.00000000E+00  0.00000000E+00
  0.00000000E+00  0.00000000E+00  0.00000000E+00
  0.00000000E+00  0.00000000E+00  0.00000000E+00
  0.00000000E+00  0.00000000E+00  0.00000000E+00
  0.00000000E+00  0.00000000E+00  0.00000000E+00
  0.00000000E+00  0.00000000E+00  0.00000000E+00
  0.00000000E+00  0.00000000E+00  0.00000000E+00
  0.00000000E+00  0.00000000E+00  0.00000000E+00
  0.00000000E+00  0.00000000E+00  0.00000000E+00
  0.00000000E+00  0.00000000E+00  0.00000000E+00
  0.00000000E+00  0.00000000E+00  0.00000000E+00
  0.00000000E+00  0.00000000E+00  0.00000000E+00
  0.00000000E+00  0.00000000E+00  0.00000000E+00
  0.00000000E+00  0.00000000E+00  0.00000000E+00
  0.00000000E+00  0.00000000E+00  0.00000000E+00
  0.00000000E+00  0.00000000E+00  0.00000000E+00
  0.00000000E+00  0.00000000E+00  0.00000000E+00
  0.00000000E+00  0.00000000E+00  0.00000000E+00
  0.00000000E+00  0.00000000E+00  0.00000000E+00
  0.00000000E+00  0.00000000E+00  0.00000000E+00
  0.00000000E+00  0.00000000E+00  0.00000000E+00
  0.00000000E+00  0.00000000E+00  0.00000000E+00
  0.00000000E+00  0.00000000E+00  0.00000000E+00
  0.00000000E+00  0.00000000E+00  0.00000000E+00
  0.00000000E+00  0.00000000E+00  0.00000000E+00
  0.00000000E+00  0.00000000E+00  0.00000000E+00
  0.00000000E+00  0.00000000E+00  0.00000000E+00
  0.00000000E+00  0.00000000E+00  0.00000000E+00
  0.00000000E+00  0.00000000E+00  0.00000000E+00
  0.00000000E+00  0.00000000E+00  0.00000000E+00
  0.00000000E+00  0.00000000E+00  0.00000000E+00
  0.00000000E+00  0.00000000E+00  0.00000000E+00
  0.00000000E+00  0.00000000E+00  0.00000000E+00
