H2O                                     
   1.00000000000000     
     3.9198726864169546   -3.5489585118356879   -0.0254665333224484
     3.9198726864169551    3.5489585118356883   -0.0254665333224484
    -3.6125041215566354    0.0000000000000000    4.9704997036369303
   H    O 
    12     6
Direct
  0.5710464237442846  0.7334881049992095  0.6733035163272165
  0.7334881049993089  0.5710464237443841  0.1733035163271170
  0.8096910058827015  0.9830453678331420  0.8540069605273840
  0.9830453678327157  0.8096910058823320  0.3540069605274905
  0.5211082520994217  0.2207703524930789  0.6055449789426481
  0.2207703524932850  0.5211082520996206  0.1055449789427477
  0.7247357040924182  0.2938519619867454  0.5169693520509728
  0.2938519619872428  0.7247357040927166  0.0169693520507669
  0.0255938131854839  0.3450004163410510  0.4153715191973338
  0.3450004163405465  0.0255938131859813  0.9153715191978382
  0.1483710298445462  0.3250561722101676  0.6879630059061915
  0.3250561722097981  0.1483710298441270  0.1879630059059925
  0.6045027700381920  0.9401863163270738  0.7629120248622361
  0.9401863163271733  0.6045027700372825  0.2629120248621294
  0.5425404115642173  0.3368867707963553  0.5272430641608420
  0.3368867707969522  0.5425404115644162  0.0272430641612398
  0.0189483689367092  0.2219767576251783  0.4938755780250995
  0.2219767576255833  0.0189483689365102  0.9938755780246874
 
  0.00000000E+00  0.00000000E+00  0.00000000E+00
  0.00000000E+00  0.00000000E+00  0.00000000E+00
  0.00000000E+00  0.00000000E+00  0.00000000E+00
  0.00000000E+00  0.00000000E+00  0.00000000E+00
  0.00000000E+00  0.00000000E+00  0.00000000E+00
  0.00000000E+00  0.00000000E+00  0.00000000E+00
  0.00000000E+00  0.00000000E+00  0.00000000E+00
  0.00000000E+00  0.00000000E+00  0.00000000E+00
  0.00000000E+00  0.00000000E+00  0.00000000E+00
  0.00000000E+00  0.00000000E+00  0.00000000E+00
  0.00000000E+00  0.00000000E+00  0.00000000E+00
  0.00000000E+00  0.00000000E+00  0.00000000E+00
  0.00000000E+00  0.00000000E+00  0.00000000E+00
  0.00000000E+00  0.00000000E+00  0.00000000E+00
  0.00000000E+00  0.00000000E+00  0.00000000E+00
  0.00000000E+00  0.00000000E+00  0.00000000E+00
  0.00000000E+00  0.00000000E+00  0.00000000E+00
  0.00000000E+00  0.00000000E+00  0.00000000E+00
