H2O                                     
   1.00000000000000     
     5.2620254864318561   -3.8100814296992431   -0.0433485134163226
     5.2620254864318561    3.8100814296992431   -0.0433485134163226
    -1.6308030533323437    0.0000000000000000    3.8573199137082463
   H    O 
    12     6
Direct
  0.7469569074080464  0.7469569074080464  0.6545018440410599
  0.2530430925923514  0.2530430925923514  0.3454981559589401
  0.7239693468004632  0.7239693468004632  0.2622259179095256
  0.2760306531998353  0.2760306531998353  0.7377740820901830
  0.9922461178644888  0.1971078671383907  0.8012204683509832
  0.0077538821350353  0.8028921328621351  0.1987795316492159
  0.8028921328621351  0.0077538821350353  0.1987795316492159
  0.1971078671378649  0.9922461178649649  0.8012204683507842
  0.2757221016041130  0.5994823262301967  0.5576927235266316
  0.7242778983958941  0.4005176737698105  0.4423072764734679
  0.4005176737698105  0.7242778983958941  0.4423072764734679
  0.5994823262301896  0.2757221016040988  0.5576927235265321
  0.6743846049958374  0.6743846049958374  0.4166995279859498
  0.3256153950045604  0.3256153950045604  0.5833004720139434
  0.1497357952160517  0.1497357952160517  0.9202567605954639
  0.8502642047837564  0.8502642047837564  0.0797432394043444
  0.2606600809109402  0.7393399190890597  0.5000000000000000
  0.7393399190885623  0.2606600809114376  0.5000000000000000
 
  0.00000000E+00  0.00000000E+00  0.00000000E+00
  0.00000000E+00  0.00000000E+00  0.00000000E+00
  0.00000000E+00  0.00000000E+00  0.00000000E+00
  0.00000000E+00  0.00000000E+00  0.00000000E+00
  0.00000000E+00  0.00000000E+00  0.00000000E+00
  0.00000000E+00  0.00000000E+00  0.00000000E+00
  0.00000000E+00  0.00000000E+00  0.00000000E+00
  0.00000000E+00  0.00000000E+00  0.00000000E+00
  0.00000000E+00  0.00000000E+00  0.00000000E+00
  0.00000000E+00  0.00000000E+00  0.00000000E+00
  0.00000000E+00  0.00000000E+00  0.00000000E+00
  0.00000000E+00  0.00000000E+00  0.00000000E+00
  0.00000000E+00  0.00000000E+00  0.00000000E+00
  0.00000000E+00  0.00000000E+00  0.00000000E+00
  0.00000000E+00  0.00000000E+00  0.00000000E+00
  0.00000000E+00  0.00000000E+00  0.00000000E+00
  0.00000000E+00  0.00000000E+00  0.00000000E+00
  0.00000000E+00  0.00000000E+00  0.00000000E+00
