H2O                                     
   1.00000000000000     
     8.8940487782374795   -0.0161316413118618    0.0219309471317553
    -0.0134747740418538    8.9284785598670293    0.0109419037788430
    -4.4131550935130273   -4.3059675704354801   15.0613960710831698
   H    O 
    64    32
Direct
  0.8767099934780485  0.3961967105537016  0.2944383666820939
  0.1232903180041201  0.6038052760375228  0.7055618701285704
  0.9860493344816269  0.4579224689889947  0.2474516650725543
  0.0139523664335501  0.5420762461612003  0.7525475273586198
  0.2683572454085039  0.4541463866801879  0.2432952856782925
  0.7316590907212170  0.5458452143901299  0.7567039919653752
  0.2657349516411427  0.2801062736158765  0.2418526340823466
  0.7342808226220834  0.7198879205528104  0.7581521980591935
  0.1102404735920226  0.6328915523118477  0.2086116108478553
  0.8897592513269653  0.3671015715789190  0.7913861366098585
  0.1650503887285820  0.6788185852885510  0.3156023756628226
  0.8349520614176442  0.3211722654840763  0.6843947868831481
  0.1044410105043147  0.0744349608984240  0.2063159419600391
  0.8955595811422089  0.9255662611863051  0.7936838704786360
  0.0432896465271823  0.2280933927855719  0.2543167842536762
  0.9567114677244010  0.7719075339382250  0.7456836013223902
  0.7319157493149837  0.4402144270110536  0.3924153584846202
  0.2680857676532263  0.5597899601285824  0.6075856568246396
  0.8940432478735930  0.3744230196601497  0.4294309429798042
  0.1059570662305889  0.6255766109319499  0.5705685489432071
  0.4709783205748098  0.4097717760354998  0.3334446564376917
  0.5290301377001702  0.5902359469261242  0.6665589677365317
  0.5238094426023843  0.3722993586534790  0.4267012371454171
  0.4762016610134145  0.6277147459668166  0.5733034801905739
  0.1241265669520142  0.5969236937743954  0.0684327435838827
  0.8758733183198069  0.4030800016394518  0.9315669098154988
  0.9487108871887805  0.6000919171033645  0.0704265356002285
  0.0512878441569471  0.3999090205042479  0.9295710310660751
  0.0602721973637471  0.8371961913921344  0.1042473870552144
  0.9397259792701614  0.1628059254712398  0.8957497331767659
  0.1286051054112776  0.9661164594245096  0.0702521795492932
  0.8713971840242152  0.0338832924885634  0.9297455433457784
  0.8716222895834623  0.9757677643965958  0.0450388487963206
  0.1283775318319362  0.0242369990534714  0.9549598109801753
  0.7094882862882763  0.8990002444363898  0.9792542961584932
  0.2905151114073133  0.1010001076392141  0.0207435995506012
  0.7290494779614443  0.4298015433845336  0.0267464440143878
  0.2709491680554967  0.5701994124132796  0.9732534789916536
  0.7004222096255144  0.5697411293242380  0.9783031657114842
  0.2995806255702370  0.4302588193147122  0.0216945724301026
  0.4776816716811886  0.3710560040343377  0.5453786468029529
  0.5223215596295216  0.6289453103670091  0.4546221559339683
  0.3967908098333567  0.2124050351265693  0.4772749796721755
  0.6032115355588682  0.7875970356017785  0.5227248831168787
  0.0654006157288261  0.3712712204047769  0.5448697548952873
  0.9345992362336372  0.6287278365169998  0.4551304860960277
  0.0730268145566223  0.2111350374226325  0.4770990621941220
  0.9269708444730488  0.7888633016321671  0.5229016105055962
  0.7699650387594762  0.3189626838998023  0.1390486934058066
  0.2300413047159708  0.6810455044372044  0.8609548353485033
  0.7170451032410819  0.1823497395166535  0.0514334536321394
  0.2829590253227890  0.8176600504138830  0.9485685970014651
  0.3744052084863890  0.3173948284913644  0.1321781056779094
  0.6256083520855138  0.6826001809436668  0.8678202110439738
  0.5016514519626745  0.2899346422540248  0.0788483400471485
  0.4983595396337891  0.7100650820231946  0.9211504138926964
  0.1397531592451381  0.7838825507709640  0.4521045063702455
  0.8602482186578523  0.2161132621409971  0.5478966359617060
  0.3187835179521906  0.7858165526518378  0.4530915791129915
  0.6812185408777859  0.2141791985961703  0.5469105031718147
  0.1802670375763752  0.1221195551525836  0.3641895335946990
  0.8197350719996447  0.8778746284789032  0.6358119563800416
  0.2110791203982609  0.0036493019830445  0.4231353691974830
  0.7889253485188158  0.9963445146074127  0.5768658528289731
  0.9117781079676583  0.3704497836660884  0.2400873734695373
  0.0882225529821420  0.6295490934266265  0.7599122878074922
  0.3305823813696469  0.3631078284832673  0.2348984533949092
  0.6694343211777357  0.6368835018546186  0.7651039069233235
  0.1388256769277703  0.5927823317657764  0.2609612781012297
  0.8611858433739129  0.4072098491455083  0.7390356950551584
  0.1308458518636071  0.1611134352830868  0.2610794015575916
  0.8691535345037883  0.8388862855466459  0.7389204523843511
  0.8439784066752707  0.4446903454896000  0.3946083646817001
  0.1560211336745110  0.5553078869677990  0.6053900503337724
  0.5457607447000894  0.4425445104498736  0.3930492902236102
  0.4542487007564421  0.5574689506822371  0.6069542199477245
  0.0544235288043911  0.6503431892674688  0.1026761026112899
  0.9455740307809530  0.3496580223579560  0.8973225999997474
  0.0584017209959946  0.9479364129708608  0.1047166146052464
  0.9415995062001683  0.0520654430492956  0.8952804721288072
  0.7758931858153408  0.9972506898842158  0.0042210555480000
  0.2241071516696150  0.0027519812939872  0.9957757817644738
  0.7761524530188719  0.5014524268300063  0.0024043148321338
  0.2238458971614873  0.4985478342280592  0.9975954868049621
  0.4963575938847190  0.2776489232252660  0.5026083493455232
  0.5036443863273239  0.7223539646812926  0.4973919182635886
  0.0011577882819518  0.2780457699783812  0.5035563664756144
  0.9988403717328196  0.7219533594003239  0.4964440003996414
  0.6953942674039175  0.2884142963068296  0.0794165371149090
  0.3046129507424388  0.7115965585364838  0.9205858046457720
  0.3884007143592295  0.2904023237649372  0.0723169674898703
  0.6116097587297223  0.7095935325286875  0.9276808461534577
  0.2145887009668025  0.8092825073454590  0.4221140179776941
  0.7854131797391831  0.1907113387556034  0.5778870881658666
  0.2104604859263217  0.1148582981135037  0.4256159306377262
  0.7895430169268345  0.8851352797239735  0.5743850296572823
 
  0.00000000E+00  0.00000000E+00  0.00000000E+00
  0.00000000E+00  0.00000000E+00  0.00000000E+00
  0.00000000E+00  0.00000000E+00  0.00000000E+00
  0.00000000E+00  0.00000000E+00  0.00000000E+00
  0.00000000E+00  0.00000000E+00  0.00000000E+00
  0.00000000E+00  0.00000000E+00  0.00000000E+00
  0.00000000E+00  0.00000000E+00  0.00000000E+00
  0.00000000E+00  0.00000000E+00  0.00000000E+00
  0.00000000E+00  0.00000000E+00  0.00000000E+00
  0.00000000E+00  0.00000000E+00  0.00000000E+00
  0.00000000E+00  0.00000000E+00  0.00000000E+00
  0.00000000E+00  0.00000000E+00  0.00000000E+00
  0.00000000E+00  0.00000000E+00  0.00000000E+00
  0.00000000E+00  0.00000000E+00  0.00000000E+00
  0.00000000E+00  0.00000000E+00  0.00000000E+00
  0.00000000E+00  0.00000000E+00  0.00000000E+00
  0.00000000E+00  0.00000000E+00  0.00000000E+00
  0.00000000E+00  0.00000000E+00  0.00000000E+00
  0.00000000E+00  0.00000000E+00  0.00000000E+00
  0.00000000E+00  0.00000000E+00  0.00000000E+00
  0.00000000E+00  0.00000000E+00  0.00000000E+00
  0.00000000E+00  0.00000000E+00  0.00000000E+00
  0.00000000E+00  0.00000000E+00  0.00000000E+00
  0.00000000E+00  0.00000000E+00  0.00000000E+00
  0.00000000E+00  0.00000000E+00  0.00000000E+00
  0.00000000E+00  0.00000000E+00  0.00000000E+00
  0.00000000E+00  0.00000000E+00  0.00000000E+00
  0.00000000E+00  0.00000000E+00  0.00000000E+00
  0.00000000E+00  0.00000000E+00  0.00000000E+00
  0.00000000E+00  0.00000000E+00  0.00000000E+00
  0.00000000E+00  0.00000000E+00  0.00000000E+00
  0.00000000E+00  0.00000000E+00  0.00000000E+00
  0.00000000E+00  0.00000000E+00  0.00000000E+00
  0.00000000E+00  0.00000000E+00  0.00000000E+00
  0.00000000E+00  0.00000000E+00  0.00000000E+00
  0.00000000E+00  0.00000000E+00  0.00000000E+00
  0.00000000E+00  0.00000000E+00  0.00000000E+00
  0.00000000E+00  0.00000000E+00  0.00000000E+00
  0.00000000E+00  0.00000000E+00  0.00000000E+00
  0.00000000E+00  0.00000000E+00  0.00000000E+00
  0.00000000E+00  0.00000000E+00  0.00000000E+00
  0.00000000E+00  0.00000000E+00  0.00000000E+00
  0.00000000E+00  0.00000000E+00  0.00000000E+00
  0.00000000E+00  0.00000000E+00  0.00000000E+00
  0.00000000E+00  0.00000000E+00  0.00000000E+00
  0.00000000E+00  0.00000000E+00  0.00000000E+00
  0.00000000E+00  0.00000000E+00  0.00000000E+00
  0.00000000E+00  0.00000000E+00  0.00000000E+00
  0.00000000E+00  0.00000000E+00  0.00000000E+00
  0.00000000E+00  0.00000000E+00  0.00000000E+00
  0.00000000E+00  0.00000000E+00  0.00000000E+00
  0.00000000E+00  0.00000000E+00  0.00000000E+00
  0.00000000E+00  0.00000000E+00  0.00000000E+00
  0.00000000E+00  0.00000000E+00  0.00000000E+00
  0.00000000E+00  0.00000000E+00  0.00000000E+00
  0.00000000E+00  0.00000000E+00  0.00000000E+00
  0.00000000E+00  0.00000000E+00  0.00000000E+00
  0.00000000E+00  0.00000000E+00  0.00000000E+00
  0.00000000E+00  0.00000000E+00  0.00000000E+00
  0.00000000E+00  0.00000000E+00  0.00000000E+00
  0.00000000E+00  0.00000000E+00  0.00000000E+00
  0.00000000E+00  0.00000000E+00  0.00000000E+00
  0.00000000E+00  0.00000000E+00  0.00000000E+00
  0.00000000E+00  0.00000000E+00  0.00000000E+00
  0.00000000E+00  0.00000000E+00  0.00000000E+00
  0.00000000E+00  0.00000000E+00  0.00000000E+00
  0.00000000E+00  0.00000000E+00  0.00000000E+00
  0.00000000E+00  0.00000000E+00  0.00000000E+00
  0.00000000E+00  0.00000000E+00  0.00000000E+00
  0.00000000E+00  0.00000000E+00  0.00000000E+00
  0.00000000E+00  0.00000000E+00  0.00000000E+00
  0.00000000E+00  0.00000000E+00  0.00000000E+00
  0.00000000E+00  0.00000000E+00  0.00000000E+00
  0.00000000E+00  0.00000000E+00  0.00000000E+00
  0.00000000E+00  0.00000000E+00  0.00000000E+00
  0.00000000E+00  0.00000000E+00  0.00000000E+00
  0.00000000E+00  0.00000000E+00  0.00000000E+00
  0.00000000E+00  0.00000000E+00  0.00000000E+00
  0.00000000E+00  0.00000000E+00  0.00000000E+00
  0.00000000E+00  0.00000000E+00  0.00000000E+00
  0.00000000E+00  0.00000000E+00  0.00000000E+00
  0.00000000E+00  0.00000000E+00  0.00000000E+00
  0.00000000E+00  0.00000000E+00  0.00000000E+00
  0.00000000E+00  0.00000000E+00  0.00000000E+00
  0.00000000E+00  0.00000000E+00  0.00000000E+00
  0.00000000E+00  0.00000000E+00  0.00000000E+00
  0.00000000E+00  0.00000000E+00  0.00000000E+00
  0.00000000E+00  0.00000000E+00  0.00000000E+00
  0.00000000E+00  0.00000000E+00  0.00000000E+00
  0.00000000E+00  0.00000000E+00  0.00000000E+00
  0.00000000E+00  0.00000000E+00  0.00000000E+00
  0.00000000E+00  0.00000000E+00  0.00000000E+00
  0.00000000E+00  0.00000000E+00  0.00000000E+00
  0.00000000E+00  0.00000000E+00  0.00000000E+00
  0.00000000E+00  0.00000000E+00  0.00000000E+00
  0.00000000E+00  0.00000000E+00  0.00000000E+00
