H2O                                     
   1.00000000000000     
     6.1417200292750280    0.0068467237289476    0.0244221437282587
     1.8146962204832195    6.1038841625027995    0.0290760185974754
     2.8202909386124220   -2.5422315612953645    4.8850635997900040
   H    O 
    16     8
Direct
  0.8935502780470364  0.9849544264179190  0.9243926506469983
  0.7533455484457408  0.0206539984696964  0.2232601836163767
  0.4930546733574118  0.9612422585943868  0.0545465343404684
  0.1911187729433560  0.9809318205483588  0.1975295474493849
  0.4986648312347685  0.6600545801423091  0.3860190942287143
  0.6456195366679554  0.3663093782510020  0.2140729779651581
  0.4417795023553707  0.5997895773213520  0.9110594694320211
  0.3098364332918165  0.4625509081187001  0.0607138871546055
  0.2975666841593043  0.9374262790944036  0.7913794735253927
  0.1922140768258985  0.0870632448605406  0.6635448424727142
  0.7144614759110322  0.1658814054165005  0.6148780744329431
  0.8987751065349204  0.8706584478158095  0.4630619007432724
  0.9120260816829635  0.4680134835170447  0.9156531352709434
  0.2135141473717008  0.4314137211046370  0.7665042152964938
  0.8935927009794118  0.5182470117634099  0.3567489338678136
  0.0362810387353469  0.5017306735814387  0.5171394009828133
  0.7113964984120270  0.0501104059493427  0.0950286447955887
  0.3703169579858268  0.9088227514713327  0.0218322772136202
  0.6769268273522090  0.5100706376239821  0.2444401614234373
  0.4296509289668405  0.4455561339085596  0.8774249749322226
  0.2315092489091767  0.9305332868837389  0.6729654979619866
  0.8600445187410889  0.0195059863661359  0.4379553478247611
  0.0812985272677997  0.4017932230509988  0.7322976927728362
  0.0214756038209834  0.5590263597286068  0.3892510816494342
 
  0.00000000E+00  0.00000000E+00  0.00000000E+00
  0.00000000E+00  0.00000000E+00  0.00000000E+00
  0.00000000E+00  0.00000000E+00  0.00000000E+00
  0.00000000E+00  0.00000000E+00  0.00000000E+00
  0.00000000E+00  0.00000000E+00  0.00000000E+00
  0.00000000E+00  0.00000000E+00  0.00000000E+00
  0.00000000E+00  0.00000000E+00  0.00000000E+00
  0.00000000E+00  0.00000000E+00  0.00000000E+00
  0.00000000E+00  0.00000000E+00  0.00000000E+00
  0.00000000E+00  0.00000000E+00  0.00000000E+00
  0.00000000E+00  0.00000000E+00  0.00000000E+00
  0.00000000E+00  0.00000000E+00  0.00000000E+00
  0.00000000E+00  0.00000000E+00  0.00000000E+00
  0.00000000E+00  0.00000000E+00  0.00000000E+00
  0.00000000E+00  0.00000000E+00  0.00000000E+00
  0.00000000E+00  0.00000000E+00  0.00000000E+00
  0.00000000E+00  0.00000000E+00  0.00000000E+00
  0.00000000E+00  0.00000000E+00  0.00000000E+00
  0.00000000E+00  0.00000000E+00  0.00000000E+00
  0.00000000E+00  0.00000000E+00  0.00000000E+00
  0.00000000E+00  0.00000000E+00  0.00000000E+00
  0.00000000E+00  0.00000000E+00  0.00000000E+00
  0.00000000E+00  0.00000000E+00  0.00000000E+00
  0.00000000E+00  0.00000000E+00  0.00000000E+00
