H2O                                     
   1.00000000000000     
     5.2100869061093809   -3.0080448428713331   -0.0000000000000000
    -0.0000002034053482    6.0160900380510620    0.0000000000000000
     0.0000000000000000    0.0000000000000000    6.1028605552197526
   H    O 
    18     9
Direct
  0.7682081962282977  0.9347672817746568  0.1776233159754997
  0.0652327182253217  0.8334409144538183  0.5109566493090344
  0.1665590855461888  0.2317918037715105  0.8442899826423701
  0.9155841932031255  0.2363093148106035  0.1799212135205753
  0.7636906851894035  0.6792748783925930  0.5132545468535059
  0.3207251216074070  0.0844158067967750  0.8465878801868416
  0.4851181027255340  0.0800829007174667  0.3349265124876556
  0.9199170992824978  0.4050352020081384  0.6682598458212826
  0.5949647979918616  0.5148818972743665  0.0015931791546184
  0.2827304242588302  0.1127672793114581  0.2077434526763217
  0.8872327206886413  0.1699631449478694  0.5410767860099488
  0.8300368550521307  0.7172695757407719  0.8744101193432845
  0.0060886891728153  0.6146400804957002  0.1217344755130532
  0.3853599195044063  0.3914486086772288  0.4550678088462823
  0.6085513913227570  0.9939113108271846  0.7884011421796180
  0.2590048958208888  0.6677587777782383  0.0091777664869120
  0.3322412222217617  0.5912461180426078  0.3425110998202477
  0.4087538819573922  0.7409951041788128  0.6758444331535906
  0.7875015351102325  0.0840175100698126  0.2578559078295493
  0.9159824899301517  0.7034840250407112  0.5911892411630840
  0.2965159749592888  0.2124984648894691  0.9245225744964197
  0.3295361300812829  0.0903043396491571  0.3562437926496665
  0.9096956603508642  0.2392317904319410  0.6895771259829950
  0.7607682095680589  0.6704638699189231  0.0229104593163308
  0.1407017907059730  0.5687375408924016  0.1283535628605135
  0.4312624591078045  0.5719642498135715  0.4616868961943466
  0.4280357501864285  0.8592982092942260  0.7950202295276823
 
  0.00000000E+00  0.00000000E+00  0.00000000E+00
  0.00000000E+00  0.00000000E+00  0.00000000E+00
  0.00000000E+00  0.00000000E+00  0.00000000E+00
  0.00000000E+00  0.00000000E+00  0.00000000E+00
  0.00000000E+00  0.00000000E+00  0.00000000E+00
  0.00000000E+00  0.00000000E+00  0.00000000E+00
  0.00000000E+00  0.00000000E+00  0.00000000E+00
  0.00000000E+00  0.00000000E+00  0.00000000E+00
  0.00000000E+00  0.00000000E+00  0.00000000E+00
  0.00000000E+00  0.00000000E+00  0.00000000E+00
  0.00000000E+00  0.00000000E+00  0.00000000E+00
  0.00000000E+00  0.00000000E+00  0.00000000E+00
  0.00000000E+00  0.00000000E+00  0.00000000E+00
  0.00000000E+00  0.00000000E+00  0.00000000E+00
  0.00000000E+00  0.00000000E+00  0.00000000E+00
  0.00000000E+00  0.00000000E+00  0.00000000E+00
  0.00000000E+00  0.00000000E+00  0.00000000E+00
  0.00000000E+00  0.00000000E+00  0.00000000E+00
  0.00000000E+00  0.00000000E+00  0.00000000E+00
  0.00000000E+00  0.00000000E+00  0.00000000E+00
  0.00000000E+00  0.00000000E+00  0.00000000E+00
  0.00000000E+00  0.00000000E+00  0.00000000E+00
  0.00000000E+00  0.00000000E+00  0.00000000E+00
  0.00000000E+00  0.00000000E+00  0.00000000E+00
  0.00000000E+00  0.00000000E+00  0.00000000E+00
  0.00000000E+00  0.00000000E+00  0.00000000E+00
  0.00000000E+00  0.00000000E+00  0.00000000E+00
