H2O                                     
   1.00000000000000     
     9.9342852613091708    0.0000000000000000   -0.0472566789669835
     0.0000000000000000    7.3679208193442447    0.0000000000000000
    -2.9003392630284175    0.0000000000000000    8.4605255147839866
   H    O 
    56    28
Direct
  0.1988435631175216  0.3499535584568012  0.6526989447912227
  0.8011564368825850  0.6500464415435968  0.3473010552084718
  0.1988435631174221  0.1500464415435968  0.1526989447915282
  0.8011564368825850  0.8499535584564032  0.8473010552084789
  0.1620835707058631  0.5034341950135637  0.7512496371812554
  0.8379164292945348  0.4965658049866282  0.2487503628191425
  0.1620835707054652  0.9965658049866353  0.2512496371808646
  0.8379164292945348  0.0034341950133647  0.7487503628191425
  0.1486428271756742  0.0845852718688664  0.5186666434572910
  0.8513571728247238  0.9154147281311050  0.4813333565432064
  0.1486428271752763  0.4154147281311123  0.0186666434567936
  0.8513571728247238  0.5845852718688950  0.9813333565432064
  0.0555481210205789  0.2489833249149566  0.4190512887590805
  0.9444518789794638  0.7510166750850505  0.5809487112406140
  0.0555481210205363  0.2510166750850434  0.9190512887593860
  0.9444518789794638  0.7489833249149495  0.0809487112406140
  0.6600001265970257  0.7817908997924775  0.6142186196356242
  0.3399998734032728  0.2182091002079275  0.3857813803641768
  0.6600001265967272  0.7182091002079275  0.1142186196358232
  0.3399998734032728  0.2817908997920724  0.8857813803641769
  0.5466252561332512  0.7490678012089710  0.4489193056904293
  0.4533747438665499  0.2509321987910147  0.5510806943092579
  0.5466252561334501  0.7509321987910290  0.9489193056907421
  0.4533747438665499  0.2490678012089710  0.0510806943092651
  0.9851322480290557  0.6402815853466225  0.8326415049856131
  0.0148677519708590  0.3597184146529725  0.1673584950142874
  0.9851322480291410  0.8597184146529725  0.3326415049857126
  0.0148677519708590  0.1402815853470275  0.6673584950142875
  0.9212699824506898  0.5084416248573915  0.6917860269298460
  0.0787300175492534  0.4915583751428073  0.3082139730699549
  0.9212699824507395  0.9915583751428074  0.1917860269300451
  0.0787300175492534  0.0084416248571927  0.8082139730699550
  0.6009742666883002  0.0431167967917177  0.7372006683170169
  0.3990257333118987  0.9568832032083037  0.2627993316828837
  0.6009742666881013  0.4568832032083036  0.2372006683171164
  0.3990257333118987  0.5431167967916963  0.7627993316828836
  0.4886801851877153  0.1316926310721113  0.8070408713858843
  0.5113198148125833  0.8683073689282867  0.1929591286143147
  0.4886801851874169  0.3683073689282938  0.3070408713856854
  0.5113198148125833  0.6316926310717133  0.6929591286143146
  0.7500213061866596  0.3613183987194013  0.8188683749674412
  0.2499786938129424  0.6386816012804921  0.1811316250329638
  0.7500213061870575  0.1386816012804921  0.3188683749670363
  0.2499786938129424  0.8613183987195079  0.6811316250329638
  0.6397080046978117  0.4508887397690280  0.8818399299666596
  0.3602919953020887  0.5491112602307729  0.1181600700332410
  0.6397080046979112  0.0491112602307730  0.3818399299667590
  0.3602919953020887  0.9508887397692271  0.6181600700332409
  0.6952648632904223  0.4849510302989170  0.5755681238510755
  0.3047351367093717  0.5150489697013885  0.4244318761493224
  0.6952648632906283  0.0150489697013815  0.0755681238506776
  0.3047351367093717  0.9849510302986115  0.9244318761493224
  0.7503005565901476  0.2901169375686172  0.5457381792975242
  0.2496994434100515  0.7098830624317879  0.4542618207025752
  0.7503005565899487  0.2098830624317878  0.0457381792974248
  0.2496994434100515  0.7901169375682121  0.9542618207025753
  0.2428087313103686  0.4334524294424614  0.7411214712308131
  0.7571912686893258  0.5665475705577518  0.2588785287694925
  0.2428087313106741  0.0665475705577447  0.2411214712305076
  0.7571912686893258  0.9334524294422482  0.7588785287694925
  0.0946821092986420  0.1937762659020903  0.5243843057784080
  0.9053178907013864  0.8062237340981087  0.4756156942211869
  0.0946821092986136  0.3062237340981087  0.0243843057788131
  0.9053178907013864  0.6937762659018913  0.9756156942211870
  0.5945920678834811  0.6896361038982520  0.5505703036537196
  0.4054079321162133  0.3103638961021458  0.4494296963460673
  0.5945920678837866  0.8103638961021459  0.0505703036539327
  0.4054079321162133  0.1896361038978541  0.9494296963460814
  0.9985999723060336  0.5971196294036230  0.7349571304994553
  0.0014000276942221  0.4028803705961782  0.2650428695009569
  0.9985999723057849  0.9028803705961781  0.2349571304990431
  0.0014000276942221  0.0971196294038218  0.7650428695009497
  0.5049338868244519  0.0955503600385677  0.7090674242551627
  0.4950661131759460  0.9044496399613896  0.2909325757452352
  0.5049338868240540  0.4044496399613897  0.2090674242547647
  0.4950661131759460  0.5955503600386104  0.7909325757452352
  0.7333212856547099  0.3911346576572909  0.9179956086526494
  0.2666787143448852  0.6088653423423893  0.0820043913468604
  0.7333212856551149  0.1088653423423964  0.4179956086531397
  0.2666787143448852  0.8911346576576107  0.5820043913468603
  0.7643296472368306  0.3890168853147403  0.6230208934665331
  0.2356703527631694  0.6109831146856648  0.3769791065334668
  0.7643296472368306  0.1109831146856648  0.1230208934665332
  0.2356703527631694  0.8890168853143352  0.8769791065334669
 
  0.00000000E+00  0.00000000E+00  0.00000000E+00
  0.00000000E+00  0.00000000E+00  0.00000000E+00
  0.00000000E+00  0.00000000E+00  0.00000000E+00
  0.00000000E+00  0.00000000E+00  0.00000000E+00
  0.00000000E+00  0.00000000E+00  0.00000000E+00
  0.00000000E+00  0.00000000E+00  0.00000000E+00
  0.00000000E+00  0.00000000E+00  0.00000000E+00
  0.00000000E+00  0.00000000E+00  0.00000000E+00
  0.00000000E+00  0.00000000E+00  0.00000000E+00
  0.00000000E+00  0.00000000E+00  0.00000000E+00
  0.00000000E+00  0.00000000E+00  0.00000000E+00
  0.00000000E+00  0.00000000E+00  0.00000000E+00
  0.00000000E+00  0.00000000E+00  0.00000000E+00
  0.00000000E+00  0.00000000E+00  0.00000000E+00
  0.00000000E+00  0.00000000E+00  0.00000000E+00
  0.00000000E+00  0.00000000E+00  0.00000000E+00
  0.00000000E+00  0.00000000E+00  0.00000000E+00
  0.00000000E+00  0.00000000E+00  0.00000000E+00
  0.00000000E+00  0.00000000E+00  0.00000000E+00
  0.00000000E+00  0.00000000E+00  0.00000000E+00
  0.00000000E+00  0.00000000E+00  0.00000000E+00
  0.00000000E+00  0.00000000E+00  0.00000000E+00
  0.00000000E+00  0.00000000E+00  0.00000000E+00
  0.00000000E+00  0.00000000E+00  0.00000000E+00
  0.00000000E+00  0.00000000E+00  0.00000000E+00
  0.00000000E+00  0.00000000E+00  0.00000000E+00
  0.00000000E+00  0.00000000E+00  0.00000000E+00
  0.00000000E+00  0.00000000E+00  0.00000000E+00
  0.00000000E+00  0.00000000E+00  0.00000000E+00
  0.00000000E+00  0.00000000E+00  0.00000000E+00
  0.00000000E+00  0.00000000E+00  0.00000000E+00
  0.00000000E+00  0.00000000E+00  0.00000000E+00
  0.00000000E+00  0.00000000E+00  0.00000000E+00
  0.00000000E+00  0.00000000E+00  0.00000000E+00
  0.00000000E+00  0.00000000E+00  0.00000000E+00
  0.00000000E+00  0.00000000E+00  0.00000000E+00
  0.00000000E+00  0.00000000E+00  0.00000000E+00
  0.00000000E+00  0.00000000E+00  0.00000000E+00
  0.00000000E+00  0.00000000E+00  0.00000000E+00
  0.00000000E+00  0.00000000E+00  0.00000000E+00
  0.00000000E+00  0.00000000E+00  0.00000000E+00
  0.00000000E+00  0.00000000E+00  0.00000000E+00
  0.00000000E+00  0.00000000E+00  0.00000000E+00
  0.00000000E+00  0.00000000E+00  0.00000000E+00
  0.00000000E+00  0.00000000E+00  0.00000000E+00
  0.00000000E+00  0.00000000E+00  0.00000000E+00
  0.00000000E+00  0.00000000E+00  0.00000000E+00
  0.00000000E+00  0.00000000E+00  0.00000000E+00
  0.00000000E+00  0.00000000E+00  0.00000000E+00
  0.00000000E+00  0.00000000E+00  0.00000000E+00
  0.00000000E+00  0.00000000E+00  0.00000000E+00
  0.00000000E+00  0.00000000E+00  0.00000000E+00
  0.00000000E+00  0.00000000E+00  0.00000000E+00
  0.00000000E+00  0.00000000E+00  0.00000000E+00
  0.00000000E+00  0.00000000E+00  0.00000000E+00
  0.00000000E+00  0.00000000E+00  0.00000000E+00
  0.00000000E+00  0.00000000E+00  0.00000000E+00
  0.00000000E+00  0.00000000E+00  0.00000000E+00
  0.00000000E+00  0.00000000E+00  0.00000000E+00
  0.00000000E+00  0.00000000E+00  0.00000000E+00
  0.00000000E+00  0.00000000E+00  0.00000000E+00
  0.00000000E+00  0.00000000E+00  0.00000000E+00
  0.00000000E+00  0.00000000E+00  0.00000000E+00
  0.00000000E+00  0.00000000E+00  0.00000000E+00
  0.00000000E+00  0.00000000E+00  0.00000000E+00
  0.00000000E+00  0.00000000E+00  0.00000000E+00
  0.00000000E+00  0.00000000E+00  0.00000000E+00
  0.00000000E+00  0.00000000E+00  0.00000000E+00
  0.00000000E+00  0.00000000E+00  0.00000000E+00
  0.00000000E+00  0.00000000E+00  0.00000000E+00
  0.00000000E+00  0.00000000E+00  0.00000000E+00
  0.00000000E+00  0.00000000E+00  0.00000000E+00
  0.00000000E+00  0.00000000E+00  0.00000000E+00
  0.00000000E+00  0.00000000E+00  0.00000000E+00
  0.00000000E+00  0.00000000E+00  0.00000000E+00
  0.00000000E+00  0.00000000E+00  0.00000000E+00
  0.00000000E+00  0.00000000E+00  0.00000000E+00
  0.00000000E+00  0.00000000E+00  0.00000000E+00
  0.00000000E+00  0.00000000E+00  0.00000000E+00
  0.00000000E+00  0.00000000E+00  0.00000000E+00
  0.00000000E+00  0.00000000E+00  0.00000000E+00
  0.00000000E+00  0.00000000E+00  0.00000000E+00
  0.00000000E+00  0.00000000E+00  0.00000000E+00
  0.00000000E+00  0.00000000E+00  0.00000000E+00
