H2O                                     
   1.00000000000000     
     2.2087726045003535   -7.7727476893191536   -0.0394891587036870
     2.2087726045003535    7.7727476893191536   -0.0394891587036869
    -1.0899091991846537    0.0000000000000000    4.2689086910627463
   H    O 
    12     6
Direct
  0.5492625266285629  0.6992366851617954  0.7044848071869517
  0.6992366851613264  0.5492625266280371  0.2044848071867527
  0.5972431066474454  0.9089844558403956  0.9051669092688978
  0.9089844558397916  0.5972431066472464  0.4051669092688551
  0.5814144347031558  0.4123616201323873  0.6541267391198817
  0.4123616201330054  0.5814144347035324  0.1541267391199812
  0.2214697865358717  0.0825581669001942  0.6649985465095580
  0.0825581668995049  0.2214697865357652  0.1649985465096575
  0.0757343865484803  0.4435182247874700  0.4415688269085182
  0.4435182247872639  0.0757343865478764  0.9415688269085182
  0.0679483766008154  0.5490356090570345  0.7430267143223656
  0.5490356090575390  0.0679483766009149  0.2430267143225646
  0.6554134421097150  0.8416136070685739  0.9114230245902913
  0.8416136070682755  0.6554134421094165  0.4114230245898224
  0.4436342220239874  0.2750450989561636  0.7963686049397881
  0.2750450989563413  0.4436342220236180  0.2963686049395892
  0.9445698817549314  0.4131763685429910  0.5283958271537088
  0.4131763685436021  0.9445698817549314  0.0283958271533109
 
  0.00000000E+00  0.00000000E+00  0.00000000E+00
  0.00000000E+00  0.00000000E+00  0.00000000E+00
  0.00000000E+00  0.00000000E+00  0.00000000E+00
  0.00000000E+00  0.00000000E+00  0.00000000E+00
  0.00000000E+00  0.00000000E+00  0.00000000E+00
  0.00000000E+00  0.00000000E+00  0.00000000E+00
  0.00000000E+00  0.00000000E+00  0.00000000E+00
  0.00000000E+00  0.00000000E+00  0.00000000E+00
  0.00000000E+00  0.00000000E+00  0.00000000E+00
  0.00000000E+00  0.00000000E+00  0.00000000E+00
  0.00000000E+00  0.00000000E+00  0.00000000E+00
  0.00000000E+00  0.00000000E+00  0.00000000E+00
  0.00000000E+00  0.00000000E+00  0.00000000E+00
  0.00000000E+00  0.00000000E+00  0.00000000E+00
  0.00000000E+00  0.00000000E+00  0.00000000E+00
  0.00000000E+00  0.00000000E+00  0.00000000E+00
  0.00000000E+00  0.00000000E+00  0.00000000E+00
  0.00000000E+00  0.00000000E+00  0.00000000E+00
