 H  O 
 1.0000000000000000
     4.3596272899999997    0.0000000000000000    0.0000000000000000
     0.0000000000000010   15.9470931599999997    0.0000000000000000
    -0.9979149699033427    0.0000000000000003    4.3339211442051466
  24  12
Direct
  0.5037466394055000  0.0865796525931200  0.1628852696659000
  0.2847071165057000  0.7587477538082000  0.2248861430318000
  0.2847071165057000  0.2412522461918000  0.7248861430318000
  0.7545942305974001  0.3127430230172000  0.9289720742410000
  0.7545942305974001  0.6872569769828000  0.4289720742410000
  0.2545942305974000  0.8127430230172000  0.9289720742410000
  0.2545942305974000  0.1872569769828000  0.4289720742410000
  0.6610413636984001  0.5680587754337100  0.1889699209229000
  0.6610413636984001  0.4319412245662900  0.6889699209229000
  0.1610413636984000  0.0680587754337100  0.1889699209229000
  0.1610413636984000  0.9319412245662900  0.6889699209229000
  0.0037466394055001  0.5865796525931199  0.1628852696659000
  0.0037466394055001  0.4134203474068800  0.6628852696659000
  0.7847071165057000  0.7412522461918000  0.7248861430318000
  0.5037466394055000  0.9134203474068801  0.6628852696659000
  0.7847071165057000  0.2587477538082000  0.2248861430318000
  0.2588180013994000  0.3456581341198000  0.4002585404770400
  0.2588180013994000  0.6543418658802000  0.9002585404770400
  0.7588180013994000  0.8456581341198000  0.4002585404770400
  0.7588180013993999  0.1543418658802000  0.9002585404770400
  0.1299859418435000  0.4250841522113300  0.2122607244752000
  0.6299859418434999  0.0749158477886700  0.7122607244751999
  0.6299859418435000  0.9250841522113300  0.2122607244752000
  0.1299859418435000  0.5749158477886700  0.7122607244751999
  0.8640442186871000  0.4135320336867200  0.8085763017302000
  0.7523993895793000  0.9067325817347001  0.4117412891464700
  0.2523993895793000  0.5932674182652999  0.9117412891464700
  0.2523993895793000  0.4067325817347000  0.4117412891464700
  0.1717730982837000  0.7627301324483000  0.0110097363094000
  0.6717730982837000  0.7372698675517000  0.5110097363093999
  0.8640442186871000  0.5864679663132800  0.3085763017302000
  0.1717730982837000  0.2372698675517000  0.5110097363093999
  0.3640442186871000  0.9135320336867200  0.8085763017302000
  0.3640442186871000  0.0864679663132800  0.3085763017302000
  0.6717730982837000  0.2627301324483000  0.0110097363094000
  0.7523993895793000  0.0932674182653000  0.9117412891464700
