 H  O 
 1.0000000000000000
     4.4599672699999999    0.0000000000000000    0.0000000000000000
     0.0000000000000003    4.5776856600000002    0.0000000000000000
    -0.3617978257227175    0.0000000000000014   22.9367632706871660
  36  18
Direct
  0.5576492393679000  0.8933270973370000  0.9998261162780745
  0.0793938673524300  0.9103498663028200  0.8251691289474000
  0.5576492393679000  0.1066729026630000  0.4998261162780745
  0.7926963036094000  0.6753514180590000  0.0316146656167600
  0.7926963036094000  0.3246485819410000  0.5316146656167600
  0.3208487297216000  0.2728772127265000  0.6963312690509000
  0.3208487297216000  0.7271227872735000  0.1963312690509000
  0.0890003782727600  0.0347341729542100  0.6713736339962000
  0.0890003782727600  0.9652658270457900  0.1713736339962000
  0.4760167771618000  0.6070368670908000  0.4972582713115610
  0.7011001405778000  0.6951613207128999  0.7006664820145001
  0.5839224979870000  0.9450412932861398  0.6606769748704000
  0.5839224979870001  0.0549587067138600  0.1606769748704000
  0.5840912897495000  0.9975275037824460  0.8367543896467000
  0.5840912897495000  0.0024724962175540  0.3367543896467000
  0.8150772529036000  0.2352110605204001  0.8622240276683000
  0.8150772529035999  0.7647889394796000  0.3622240276683000
  0.1952272491879000  0.6607767929443000  0.8651035599189999
  0.1952272491879000  0.3392232070557000  0.3651035599190000
  0.7011001405778000  0.3048386792871000  0.2006664820145000
  0.4760167771618000  0.3929631329092000  0.9972582713115610
  0.0793938673524300  0.0896501336971800  0.3251691289474000
  0.2229952172154000  0.2695852929440000  0.0341094771644900
  0.1272264439269000  0.3781262170046000  0.6080598994976000
  0.8923678732639000  0.3735746901487000  0.1110944246441000
  0.2229952172154000  0.7304147070560000  0.5341094771644900
  0.8923678732639000  0.6264253098513000  0.6110944246441000
  0.8732020999887999  0.5698228528239000  0.9387478198990999
  0.6240814702931000  0.3392812726279000  0.7737068905463000
  0.1272264439269000  0.6218737829954000  0.1080598994976000
  0.8732020999887999  0.4301771471761000  0.4387478198991000
  0.6240814702931000  0.6607187273721000  0.2737068905463000
  0.3912963020112000  0.5907547349957000  0.7759699382805999
  0.3912963020112000  0.4092452650043000  0.2759699382806000
  0.1185868874101000  0.6701353618131001  0.4412919230460000
  0.1185868874101000  0.3298646381869000  0.9412919230460000
  0.0065798992225470  0.4905898072907000  0.0830926663571000
  0.2585486046766000  0.7899088329651001  0.8333617215711999
  0.7612233667039000  0.8836264922476998  0.3278013479922000
  0.2585486046766000  0.2100911670349000  0.3333617215712000
  0.9943617437529080  0.4433740812639000  0.9136598417018000
  0.7612233667039000  0.1163735077523000  0.8278013479922000
  0.7635589626578000  0.1742964764456000  0.1690477108216000
  0.7635589626578001  0.8257035235544000  0.6690477108216000
  0.5062437521431000  0.4717411474049999  0.7483820837601999
  0.5062437521431000  0.5282588525950001  0.2483820837602000
  0.2660515731563000  0.8470498565414000  0.1620810808184000
  0.2660515731563000  0.1529501434586000  0.6620810808184000
  0.3475800157938000  0.2186898882013000  0.0007320229549403
  0.6733220618922000  0.2881019593378000  0.4959026316259429
  0.6733220618922000  0.7118980406622000  0.9959026316259429
  0.3475800157938000  0.7813101117987000  0.5007320229549403
  0.0065798992225470  0.5094101927093000  0.5830926663571000
  0.9943617437529080  0.5566259187361000  0.4136598417018000
