 H  O 
 1.0000000000000000
     8.4083000000000006    0.0000000000000000    0.0000000000000000
     0.0000000000000003    4.5399000000000003    0.0000000000000000
    -3.9051038609089765    0.0000000000000007    5.7880290838517565
  16   8
Direct
  0.3602400000000000  0.6746300000000001  0.7741300000000000
  0.8719200000000000  0.5000000000000000  0.5589000000000000
  0.1280800000000000  0.5000000000000000  0.4410999999999999
  0.5822900000000001  0.0000000000000000  0.7729700000000000
  0.4177100000000000  0.0000000000000000  0.2270300000000000
  0.0822900000000000  0.5000000000000000  0.7729700000000000
  0.9177100000000000  0.5000000000000000  0.2270300000000000
  0.6280799999999999  0.0000000000000000  0.4410999999999999
  0.6397600000000000  0.6746300000000001  0.2258700000000000
  0.3719200000000000  0.0000000000000000  0.5589000000000000
  0.3602400000000000  0.3253700000000000  0.7741300000000000
  0.8602400000000000  0.1746300000000000  0.7741300000000000
  0.1397600000000000  0.1746300000000000  0.2258700000000000
  0.1397600000000000  0.8253699999999999  0.2258700000000000
  0.8602400000000000  0.8253699999999999  0.7741300000000000
  0.6397600000000000  0.3253700000000000  0.2258700000000000
  0.0507600000000000  0.5000000000000000  0.2715000000000000
  0.9492400000000000  0.5000000000000000  0.7284999999999999
  0.5507600000000000  0.0000000000000000  0.2715000000000000
  0.4492400000000000  0.0000000000000000  0.7284999999999999
  0.7178000000000000  0.5000000000000000  0.2502300000000000
  0.2822000000000000  0.5000000000000000  0.7497700000000000
  0.2178000000000000  0.0000000000000000  0.2502300000000000
  0.7822000000000000  0.0000000000000000  0.7497700000000000
