 H  O 
 1.0000000000000000
     7.5371278400000001    0.0000000000000000    0.0000000000000000
     0.0000000000000005    7.5371278400000001    0.0000000000000000
     0.0000000000000003    0.0000000000000003    4.3634986500000004
  16   8
Direct
  0.2357494615269000  0.7642505384731000  0.8174372274546000
  0.5441612702499800  0.3092927388418000  0.5000000000000000
  0.4558387297500200  0.6907072611582000  0.5000000000000000
  0.6907072611582000  0.4558387297500200  0.5000000000000000
  0.3092927388418000  0.5441612702499800  0.5000000000000000
  0.9558387297500200  0.8092927388418000  0.0000000000000000
  0.0441612702499800  0.1907072611582000  0.0000000000000000
  0.1907072611582000  0.0441612702499800  0.0000000000000000
  0.7642505384731000  0.2357494615269000  0.8174372274546000
  0.8092927388417999  0.9558387297500200  0.0000000000000000
  0.2642505384731000  0.2642505384731000  0.3174372274546000
  0.2642505384731000  0.2642505384731000  0.6825627725454000
  0.7357494615269000  0.7357494615269000  0.6825627725454000
  0.7642505384731000  0.2357494615269000  0.1825627725454000
  0.2357494615269000  0.7642505384731000  0.1825627725454000
  0.7357494615269000  0.7357494615269000  0.3174372274546000
  0.1742660328557000  0.1742660328557000  0.0000000000000000
  0.8257339671443000  0.8257339671443000  0.0000000000000000
  0.3257339671443000  0.6742660328557000  0.5000000000000000
  0.6742660328557000  0.3257339671443000  0.5000000000000000
  0.3190389003116000  0.3190389003116000  0.5000000000000000
  0.6809610996884000  0.6809610996884000  0.5000000000000000
  0.8190389003116000  0.1809610996884000  0.0000000000000000
  0.1809610996884000  0.8190389003116000  0.0000000000000000
