 H  O 
 1.0000000000000000
    12.1132894199999992    0.0000000000000000    0.0000000000000000
     6.0572350476068690   11.1232651694555162    0.0000000000000000
     6.2026681319787542    0.0899623886444032   12.3907805606827175
  76  38
Direct
  0.2844750750936000  0.3725167176000000  0.0312376498477200
  0.9100831560028901  0.6176029682032000  0.9134288209347500
  0.9500074493261000  0.3825712680923000  0.0756194493153500
  0.0838305003072000  0.3821436630963000  0.0779146066527700
  0.8194729021500000  0.3750042900033000  0.9605774252829301
  0.9093549035480301  0.3216114855573000  0.8447923454396000
  0.1758098630161000  0.5356844574841000  0.1195472499548000
  0.0870122917744700  0.6776841552906000  0.1413526048592000
  0.3470729898880999  0.4576355238129000  0.8715983171311000
  0.4225811431858000  0.3166558480314000  0.8490475498522000
  0.6618135010565001  0.6227197293302000  0.0309711995321300
  0.5233141560184000  0.6155043884036999  0.1000868273808000
  0.8009778201477999  0.5391709933905000  0.8727555952792000
  0.7352895840247998  0.6814752661753001  0.8507642646785000
  0.7865876854681000  0.9253043791112200  0.9975499696643420
  0.2576711869588000  0.3169102637620000  0.1469454030167000
  0.1978376612331000  0.6209956605118000  0.9619224472589502
  0.1285558697049000  0.6168237173918000  0.8928575182556999
  0.7197407658521999  0.4578415123904000  0.1203500417711000
  0.7727844977492000  0.3166150294890000  0.1437973616123000
  0.9931121717020250  0.5315365033007999  0.9812247460988599
  0.4242005218209000  0.8498032957875000  0.5356667243034000
  0.3250772819638999  0.6154240142690000  0.0802316806576800
  0.6660851298001997  0.3837859486092000  0.9143550864014801
  0.2847583443307000  0.9287130078130200  0.9994235544090584
  0.2140384124810001  0.0703297208973500  0.9963147650413529
  0.6661609672892999  0.9981264962585170  0.8997867643848000
  0.6146834262402999  0.9293677889715199  0.8572519150960000
  0.3342244765544001  0.0000631523222722  0.0934705095683700
  0.4763247946554000  0.0011956922525270  0.0250673602261600
  0.0663538828905200  0.9981661645485540  0.0956220949993700
  0.9915764254855641  0.9997256234504630  0.0285035325523400
  0.9319739150845899  0.9993078649412727  0.9025728003650700
  0.0958250714615200  0.9304704807346000  0.8617593184936000
  0.4032438393799999  0.7302563152298001  0.9628670722312000
  0.3415172458854002  0.8053624919522000  0.8765156484403999
  0.5970658647579000  0.2644455002829000  0.0387932461943400
  0.6577926219999001  0.1904118000567000  0.1251163074115000
  0.8665534057939002  0.7286774982470000  0.0338263033838900
  0.7175500767928999  0.8009903541708000  0.1226882429285000
  0.1375742445735000  0.2668480575293000  0.9536269832304501
  0.1496340980648000  0.1938888818723000  0.8676532370346000
  0.5305499381823999  0.3824487400111001  0.9173575035473400
  0.4767567734413999  0.5303159377875000  0.0125655672122300
  0.3399106823167001  0.9579267481746399  0.6135279863972001
  0.7152366959303998  0.0669037385687300  0.9979705436269711
  0.5779264283792002  0.1358206777092000  0.4594702874040000
  0.2844106211937000  0.1326918956491000  0.5331917105740001
  0.3471028402576001  0.1258866030957000  0.6123537680118001
  0.2404546983881000  0.7347370329256997  0.8263965980085000
  0.8349622188862000  0.1201955588246000  0.1640887519530000
  0.6977085244958000  0.1728065777770000  0.2680255620193000
  0.5426319931686001  0.8069145604609000  0.8441003983767000
  0.6470740110094000  0.8199197357376998  0.7285395946202000
  0.3732618690264001  0.1225175347705000  0.1649928866501000
  0.4539468953374000  0.1925720048926000  0.1562663686818000
  0.4996892576692999  0.8750727593286000  0.1613054762740000
  0.5663173102931998  0.7334992868576000  0.1706195615623000
  0.5019892405277000  0.1260575937927000  0.8282973900703000
  0.3511252685008999  0.1950408313770000  0.8371447013281001
  0.9573521656135699  0.8699025128618999  0.1648602539472000
  0.8858993647226000  0.8005775551498000  0.1539081640400000
  0.0409550676149000  0.1242409112710000  0.8313504503387000
  0.1268794369508000  0.1745352922012000  0.7250241758100999
  0.8107390725427002  0.8378614255013999  0.3236498942630000
  0.6551543692516001  0.8613945288778999  0.3826398450869000
  0.3005991836133000  0.8177759723685000  0.7325501020046000
  0.4588884162236000  0.1264612735557000  0.3791529498954000
  0.4826064447080000  0.1533781133499000  0.6707436120796001
  0.5461456402493000  0.0304276300679800  0.6146726742884000
  0.6621312991100000  0.0262340275953400  0.3828554507217000
  0.5182918901189998  0.8372624961632001  0.3241981664932000
  0.6835989854341002  0.8536371472049999  0.5331276440621000
  0.3598115330884999  0.1510541074726000  0.3239956921918000
  0.4528721207879000  0.9581411322537600  0.3837624420637000
  0.5423942990138000  0.8589810763626001  0.6149002363419001
  0.3898253831346000  0.8044866956412999  0.9183826601038200
  0.3633780143141000  0.1915016295044000  0.1953457424986000
  0.2129244920664000  0.3825716519238000  0.1043828520073000
  0.0136631493470300  0.0042606310731830  0.8964166890892999
  0.6208057233696997  0.8687037742724000  0.6091809368992001
  0.5594955030798000  0.8063582263417001  0.1919612765838000
  0.9818477646704100  0.9970712669156589  0.1035235009670000
  0.4958260127368999  0.1174727928876000  0.6079092791920000
  0.4122568361824999  0.9991744166701634  0.1003233234979000
  0.5866816819834999  0.0029966437173100  0.8923567452584001
  0.6105189265564001  0.1147935749995000  0.3847817921158000
  0.9365839938227299  0.8001924760124000  0.1936605422221000
  0.2242229012603000  0.0004165848059403  0.0458721720114500
  0.7994207981748999  0.3797070437728000  0.1001331688480000
  0.7751277115516000  0.9967078911802149  0.9496482777868800
  0.2139286609002001  0.6137866421407000  0.8869010279898000
  0.4422922466745001  0.1949675536669000  0.7977126520875000
  0.6114883381175000  0.1896136438042000  0.0821351579998100
  0.6337625953173999  0.8071364485337000  0.8046908117175000
  0.8218531783671000  0.3865124847318000  0.8875411481510000
  0.7266682045707999  0.8728651535314002  0.3887177171286000
  0.0366660526657100  0.3895193576804000  0.0329653365620000
  0.4058050107969000  0.3793151737040000  0.8921797695296000
  0.5034956147763000  0.8705055147451000  0.3889113039191000
  0.9689390265194201  0.6120383966942000  0.9472748202753200
  0.2734099262455000  0.1154916325328000  0.6085121311728000
  0.4184212275451999  0.6101112666177000  0.0467616431244000
  0.3921563892607001  0.8698147690908001  0.6107066718694000
  0.2492547890705000  0.8110101582083000  0.8101569742443000
  0.5739588107598000  0.3891667870280999  0.9597261182500700
  0.6024382326922000  0.6130742173489000  0.1057137632822000
  0.1970055057687000  0.1923976737072000  0.9106774179489400
  0.7454408854360000  0.1908704507354000  0.1921970439997000
  0.3801090277895000  0.1153923544255000  0.3882303197197000
  0.8081124060959000  0.8014610650694001  0.0791996855646200
  0.7797568856075000  0.6174646094280001  0.8944482174259000
  0.1760043977450000  0.6145082596436000  0.0972472560910900
  0.0615099174623900  0.1940300965910000  0.8004031017466999
