 H  O 
 1.0000000000000000
    -2.4580137049999999    2.4580137049999999    3.6448194300000001
     2.4580137049999999   -2.4580137049999999    3.6448194300000001
     2.4580137049999999    2.4580137049999999   -3.6448194300000001
   8   4
Direct
  0.6968950180745442  0.7893584747761414  0.5924634567015972
  0.6968950180745442  0.1044315613729470  0.9075365432984028
  0.3031049819254558  0.8955684386270529  0.0924634567015972
  0.3031049819254558  0.2106415252238586  0.4075365432984028
  0.2106415252238037  0.3031049819254009  0.9075365432984028
  0.8955684386269982  0.3031049819254008  0.5924634567015972
  0.1044315613730019  0.6968950180745992  0.4075365432984028
  0.7893584747761964  0.6968950180745992  0.0924634567015973
  0.6169690107732992  0.8669690107732992  0.7500000000000000
  0.3830309892267008  0.1330309892267009  0.2500000000000000
  0.1330309892267009  0.3830309892267009  0.7500000000000000
  0.8669690107732991  0.6169690107732991  0.2500000000000000
