 H  O 
 1.0000000000000000
     2.9327451199999999    0.0000000000000000    0.0000000000000000
     0.0000000000000002    2.9327451199999999    0.0000000000000000
     0.0000000000000002    0.0000000000000002    2.9327451199999999
   4   2
Direct
  0.00000000000E+00  0.00000000000E+00  0.00000000000E+00
 -5.00000000000E-01 -5.00000000000E-01  0.00000000000E+00
  0.00000000000E+00 -5.00000000000E-01 -5.00000000000E-01
 -5.00000000000E-01  0.00000000000E+00 -5.00000000000E-01
  2.50000000000E-01  2.50000000000E-01  2.50000000000E-01
 -2.50000000000E-01 -2.50000000000E-01 -2.50000000000E-01
