 H  O 
 1.0000000000000000
     5.8123023299999996    0.0000000000000000    0.0000000000000000
     0.0720342080246847    6.1903416494257257    0.0000000000000000
     0.0437403808526227    0.1000095239747032    6.2245216718122593
  20  10
Direct
  0.3732520795548000  0.2455342059758000  0.1818119365617000
  0.8742881039691001  0.1748899835248000  0.2439350128896000
  0.1257118960309000  0.8251100164752001  0.7560649871104000
  0.1606720759960000  0.6191573816624000  0.2495480818073000
  0.8393279240039999  0.3808426183376000  0.7504519181927000
  0.1420014282027000  0.8657798865915000  0.2535585040032000
  0.8579985717973000  0.1342201134085000  0.7464414959968000
  0.4869434286990000  0.7532412876580000  0.0383000995107600
  0.5130565713010000  0.2467587123420000  0.9616999004892400
  0.6267479204452000  0.7544657940242000  0.8181880634383000
  0.2009741622348000  0.0392956193056100  0.8716607959488001
  0.7990258377652000  0.9607043806943900  0.1283392040512000
  0.2080000451946000  0.4747039961239000  0.6313302610452001
  0.7935913476378000  0.5414944661854000  0.1239849555629000
  0.2064086523622000  0.4585055338146001  0.8760150444371001
  0.5166891898813000  0.2500472852038000  0.5447995956176001
  0.7919999548054000  0.5252960038761000  0.3686697389548000
  0.7188234003455001  0.8631374435142000  0.4610678022200000
  0.2811765996545000  0.1368625564858000  0.5389321977800000
  0.4833108101187000  0.7499527147962000  0.4552004043823999
  0.3594987877305000  0.2463248606090000  0.0250745314924300
  0.6293605670597000  0.7494883981018000  0.5318358544692000
  0.8785035094821000  0.0167324015389800  0.2526810519338000
  0.1214964905179000  0.9832675984610201  0.7473189480661999
  0.1340783740608000  0.5377596904310999  0.7565813168571999
  0.7445628228965000  0.2525731594097000  0.7507081531874999
  0.8659216259392000  0.4622403095689000  0.2434186831428000
  0.6405012122695000  0.7536751393909999  0.9749254685075700
  0.2554371771035000  0.7474268405903001  0.2492918468125000
  0.3706394329403000  0.2505116018982000  0.4681641455308000
