 H  O 
 1.0000000000000000
    16.2007407999999984    0.0000000000000000    0.0000000000000000
     0.0000000000000010   16.2007407999999984    0.0000000000000000
     0.0000000000000010    0.0000000000000010   16.2007407999999984
 192  96
Direct
  0.2957366340663800  0.1531329523403600  0.4212561631633000
  0.5794753765540100  0.6147909814499000  0.9729168473629300
  0.9205246234459900  0.3852090185501000  0.4729168473629300
  0.4205246234459900  0.1147909814499000  0.5270831526370700
  0.0794753765540100  0.8852090185501000  0.0270831526370700
  0.7957366340663800  0.6531329523403600  0.9212561631633001
  0.2957366340663800  0.8468670476596400  0.0787438368367000
  0.0270831526370700  0.0794753765540100  0.8852090185501000
  0.2042633659336200  0.1531329523403600  0.5787438368366999
  0.0787438368367000  0.2957366340663800  0.8468670476596400
  0.9212561631633001  0.7957366340663800  0.6531329523403600
  0.4212561631633000  0.7042633659336200  0.3468670476596400
  0.5787438368366999  0.2042633659336200  0.1531329523403600
  0.1531329523403600  0.5787438368366999  0.2042633659336200
  0.3468670476596400  0.4212561631633000  0.7042633659336200
  0.7042633659336200  0.3468670476596400  0.4212561631633000
  0.6531329523403600  0.9212561631633001  0.7957366340663800
  0.5270831526370700  0.4205246234459900  0.1147909814499000
  0.9729168473629300  0.5794753765540100  0.6147909814499000
  0.2770831526370700  0.3647909814499000  0.8294753765540100
  0.7770831526370700  0.1352090185501000  0.1705246234459900
  0.3294753765540100  0.2229168473629300  0.6352090185501000
  0.6705246234459900  0.7229168473629300  0.8647909814499000
  0.1705246234459900  0.7770831526370700  0.1352090185501000
  0.8294753765540100  0.2770831526370700  0.3647909814499000
  0.4729168473629300  0.9205246234459900  0.3852090185501000
  0.3647909814499000  0.8294753765540100  0.2770831526370700
  0.8647909814499000  0.6705246234459900  0.7229168473629300
  0.6352090185501000  0.3294753765540100  0.2229168473629300
  0.6147909814499000  0.9729168473629300  0.5794753765540100
  0.3852090185501000  0.4729168473629300  0.9205246234459900
  0.1147909814499000  0.5270831526370700  0.4205246234459900
  0.8852090185501000  0.0270831526370700  0.0794753765540100
  0.1352090185501000  0.1705246234459900  0.7770831526370700
  0.2229168473629300  0.6352090185501000  0.3294753765540100
  0.8468670476596400  0.0787438368367000  0.2957366340663800
  0.0968670476596400  0.0457366340663800  0.6712561631633001
  0.8468670476596400  0.4212561631633000  0.7957366340663800
  0.6531329523403600  0.5787438368366999  0.2957366340663800
  0.3468670476596400  0.0787438368367000  0.2042633659336200
  0.1531329523403600  0.9212561631633001  0.7042633659336200
  0.0968670476596400  0.4542633659336200  0.1712561631633000
  0.9031329523403600  0.9542633659336200  0.3287438368367000
  0.4212561631633000  0.7957366340663800  0.8468670476596400
  0.5968670476596400  0.0457366340663800  0.8287438368366999
  0.4542633659336200  0.1712561631633000  0.0968670476596400
  0.9542633659336200  0.3287438368367000  0.9031329523403600
  0.0457366340663800  0.8287438368366999  0.5968670476596400
  0.5457366340663800  0.6712561631633001  0.4031329523403600
  0.1712561631633000  0.0968670476596400  0.4542633659336200
  0.3287438368367000  0.9031329523403600  0.9542633659336200
  0.4031329523403600  0.5457366340663800  0.6712561631633001
  0.9031329523403600  0.5457366340663800  0.8287438368366999
  0.5787438368366999  0.2957366340663800  0.6531329523403600
  0.9212561631633001  0.7042633659336200  0.1531329523403600
  0.4031329523403600  0.9542633659336200  0.1712561631633000
  0.5968670476596400  0.4542633659336200  0.3287438368367000
  0.5457366340663800  0.8287438368366999  0.9031329523403600
  0.0457366340663800  0.6712561631633001  0.0968670476596400
  0.9542633659336200  0.1712561631633000  0.4031329523403600
  0.4542633659336200  0.3287438368367000  0.5968670476596400
  0.0787438368367000  0.2042633659336200  0.3468670476596400
  0.8287438368366999  0.9031329523403600  0.5457366340663800
  0.1712561631633000  0.4031329523403600  0.9542633659336200
  0.3287438368367000  0.5968670476596400  0.4542633659336200
  0.2042633659336200  0.3468670476596400  0.0787438368367000
  0.7042633659336200  0.1531329523403600  0.9212561631633001
  0.7957366340663800  0.8468670476596400  0.4212561631633000
  0.2957366340663800  0.6531329523403600  0.5787438368366999
  0.6712561631633001  0.0968670476596400  0.0457366340663800
  0.8287438368366999  0.5968670476596400  0.0457366340663800
  0.7229168473629300  0.8647909814499000  0.6705246234459900
  0.5794753765540100  0.8852090185501000  0.4729168473629300
  0.9205246234459900  0.8852090185501000  0.5270831526370700
  0.5794753765540100  0.1147909814499000  0.0270831526370700
  0.0794753765540100  0.3852090185501000  0.9729168473629300
  0.4205246234459900  0.6147909814499000  0.4729168473629300
  0.2229168473629300  0.3647909814499000  0.1705246234459900
  0.7229168473629300  0.1352090185501000  0.8294753765540100
  0.4729168473629300  0.4205246234459900  0.6147909814499000
  0.7770831526370700  0.8647909814499000  0.3294753765540100
  0.8294753765540100  0.7229168473629300  0.1352090185501000
  0.1705246234459900  0.2229168473629300  0.3647909814499000
  0.6705246234459900  0.2770831526370700  0.6352090185501000
  0.3294753765540100  0.7770831526370700  0.8647909814499000
  0.8647909814499000  0.3294753765540100  0.7770831526370700
  0.6352090185501000  0.6705246234459900  0.2770831526370700
  0.2770831526370700  0.6352090185501000  0.6705246234459900
  0.3647909814499000  0.1705246234459900  0.2229168473629300
  0.9729168473629300  0.0794753765540100  0.3852090185501000
  0.5270831526370700  0.9205246234459900  0.8852090185501000
  0.2229168473629300  0.1352090185501000  0.6705246234459900
  0.7229168473629300  0.3647909814499000  0.3294753765540100
  0.1705246234459900  0.2770831526370700  0.8647909814499000
  0.8294753765540100  0.7770831526370700  0.6352090185501000
  0.3294753765540100  0.7229168473629300  0.3647909814499000
  0.6705246234459900  0.2229168473629300  0.1352090185501000
  0.0270831526370700  0.5794753765540100  0.1147909814499000
  0.1352090185500999  0.6705246234459900  0.2229168473629300
  0.6352090185501000  0.8294753765540100  0.7770831526370700
  0.8647909814499000  0.1705246234459900  0.2770831526370700
  0.8852090185501000  0.5270831526370700  0.9205246234459900
  0.1147909814499000  0.0270831526370700  0.5794753765540100
  0.3852090185501000  0.9729168473629300  0.0794753765540100
  0.6147909814499000  0.4729168473629300  0.4205246234459900
  0.3647909814499000  0.3294753765540100  0.7229168473629300
  0.9205246234459900  0.1147909814499000  0.9729168473629300
  0.1352090185501000  0.8294753765540100  0.7229168473629300
  0.8852090185501000  0.9729168473629300  0.4205246234459900
  0.6352090185501000  0.1705246234459900  0.7229168473629300
  0.8647909814499000  0.8294753765540100  0.2229168473629300
  0.1352090185501000  0.3294753765540100  0.2770831526370700
  0.3647909814499000  0.6705246234459900  0.7770831526370700
  0.3852090185501000  0.0270831526370700  0.4205246234459900
  0.6147909814499000  0.5270831526370700  0.0794753765540100
  0.1705246234459900  0.7229168473629300  0.6352090185501000
  0.8852090185501000  0.4729168473629300  0.5794753765540100
  0.0270831526370700  0.4205246234459900  0.3852090185501000
  0.5270831526370700  0.0794753765540100  0.6147909814499000
  0.4729168473629300  0.5794753765540100  0.8852090185501000
  0.9729168473629300  0.9205246234459900  0.1147909814499000
  0.4205246234459900  0.3852090185501000  0.0270831526370700
  0.0794753765540100  0.6147909814499000  0.5270831526370700
  0.1147909814499000  0.9729168473629300  0.9205246234459900
  0.1147909814499000  0.4729168473629300  0.0794753765540100
  0.8294753765540100  0.2229168473629300  0.8647909814499000
  0.6705246234459900  0.7770831526370700  0.3647909814499000
  0.6147909814499000  0.0270831526370700  0.9205246234459900
  0.3852090185501000  0.5270831526370700  0.5794753765540100
  0.4729168473629300  0.0794753765540100  0.1147909814499000
  0.9729168473629300  0.4205246234459900  0.8852090185501000
  0.0270831526370700  0.9205246234459900  0.6147909814499000
  0.5270831526370700  0.5794753765540100  0.3852090185501000
  0.3294753765540100  0.2770831526370700  0.1352090185501000
  0.0794753765540100  0.1147909814499000  0.4729168473629300
  0.9205246234459900  0.6147909814499000  0.0270831526370700
  0.5794753765540100  0.3852090185501000  0.5270831526370700
  0.2770831526370700  0.1352090185501000  0.3294753765540100
  0.7770831526370700  0.3647909814499000  0.6705246234459900
  0.7229168473629300  0.6352090185501000  0.1705246234459900
  0.2229168473629300  0.8647909814499000  0.8294753765540100
  0.4205246234459900  0.8852090185501000  0.9729168473629300
  0.6712561631633001  0.4031329523403600  0.5457366340663800
  0.7770831526370700  0.6352090185501000  0.8294753765540100
  0.7957366340663800  0.3468670476596400  0.5787438368366999
  0.7957366340663800  0.1531329523403600  0.0787438368367000
  0.4212561631633000  0.2042633659336200  0.6531329523403600
  0.5787438368366999  0.7042633659336200  0.8468670476596400
  0.0787438368367000  0.7957366340663800  0.1531329523403600
  0.9212561631633001  0.2957366340663800  0.3468670476596400
  0.3468670476596400  0.9212561631633001  0.2957366340663800
  0.1531329523403600  0.0787438368367000  0.7957366340663800
  0.8468670476596400  0.5787438368366999  0.7042633659336200
  0.2770831526370700  0.8647909814499000  0.1705246234459900
  0.5968670476596400  0.9542633659336200  0.6712561631633001
  0.4031329523403600  0.4542633659336200  0.8287438368366999
  0.0968670476596400  0.5457366340663800  0.3287438368367000
  0.9031329523403600  0.0457366340663800  0.1712561631633000
  0.9542633659336200  0.6712561631633001  0.5968670476596400
  0.4542633659336200  0.8287438368366999  0.4031329523403600
  0.5457366340663800  0.3287438368367000  0.0968670476596400
  0.0457366340663800  0.1712561631633000  0.9031329523403600
  0.6712561631633001  0.5968670476596400  0.9542633659336200
  0.8287438368366999  0.4031329523403600  0.4542633659336200
  0.3287438368367000  0.0968670476596400  0.5457366340663800
  0.1712561631633000  0.9031329523403600  0.0457366340663800
  0.2957366340663800  0.3468670476596400  0.9212561631633001
  0.2042633659336200  0.6531329523403600  0.4212561631633000
  0.6531329523403600  0.4212561631633000  0.2042633659336200
  0.8287438368366999  0.0968670476596400  0.9542633659336200
  0.7042633659336200  0.8468670476596400  0.5787438368366999
  0.7042633659336200  0.6531329523403600  0.0787438368367000
  0.2042633659336200  0.8468670476596400  0.9212561631633001
  0.5787438368366999  0.7957366340663800  0.3468670476596400
  0.4212561631633000  0.2957366340663800  0.1531329523403600
  0.9212561631633001  0.2042633659336200  0.8468670476596400
  0.6531329523403600  0.0787438368367000  0.7042633659336200
  0.8468670476596400  0.9212561631633001  0.2042633659336200
  0.1531329523403600  0.4212561631633000  0.2957366340663800
  0.3468670476596400  0.5787438368366999  0.7957366340663800
  0.0787438368367000  0.7042633659336200  0.6531329523403600
  0.5968670476596400  0.5457366340663800  0.1712561631633000
  0.4031329523403600  0.0457366340663800  0.3287438368367000
  0.1712561631633000  0.5968670476596400  0.5457366340663800
  0.3287438368367000  0.4031329523403600  0.0457366340663800
  0.9542633659336200  0.8287438368366999  0.0968670476596400
  0.4542633659336200  0.6712561631633001  0.9031329523403600
  0.6712561631633001  0.9031329523403600  0.4542633659336200
  0.0457366340663800  0.3287438368367000  0.4031329523403600
  0.0968670476596400  0.9542633659336200  0.8287438368366999
  0.9031329523403600  0.4542633659336200  0.6712561631633001
  0.5457366340663800  0.1712561631633000  0.5968670476596400
  0.9018101211417000  0.4989963832272369  0.6314606909097000
  0.6314606909097000  0.9018101211417000  0.4989963832272369
  0.1314606909097000  0.5981898788583000  0.5010036167727629
  0.3685393090903000  0.4018101211417000  0.0010036167727630
  0.9989963832272371  0.8685393090903000  0.0981898788583000
  0.4989963832272369  0.6314606909097000  0.9018101211417000
  0.5010036167727629  0.1314606909097000  0.5981898788583000
  0.0010036167727630  0.3685393090903000  0.4018101211417000
  0.0981898788583000  0.9989963832272371  0.8685393090903000
  0.5981898788583000  0.5010036167727629  0.1314606909097000
  0.7489963832272371  0.6518101211417000  0.1185393090903000
  0.3481898788583000  0.6185393090903000  0.7510036167727629
  0.1518101211417000  0.3814606909097000  0.2510036167727630
  0.8481898788583000  0.8814606909097000  0.2489963832272370
  0.6518101211417000  0.1185393090903000  0.7489963832272371
  0.1185393090903000  0.7489963832272371  0.6518101211417000
  0.8814606909097000  0.2489963832272370  0.8481898788583000
  0.3814606909097000  0.2510036167727630  0.1518101211417000
  0.6185393090903000  0.7510036167727629  0.3481898788583000
  0.2489963832272370  0.8481898788583000  0.8814606909097000
  0.4018101211417000  0.0010036167727630  0.3685393090903000
  0.8685393090903000  0.0981898788583000  0.9989963832272371
  0.3685393090903000  0.0981898788583000  0.5010036167727629
  0.2489963832272370  0.6518101211417000  0.3814606909097000
  0.7510036167727629  0.3481898788583000  0.6185393090903000
  0.8685393090903000  0.4018101211417000  0.4989963832272369
  0.6314606909097000  0.5981898788583000  0.9989963832272371
  0.0010036167727630  0.1314606909097000  0.9018101211417000
  0.5010036167727629  0.3685393090903000  0.0981898788583000
  0.4989963832272369  0.8685393090903000  0.4018101211417000
  0.9989963832272371  0.6314606909097000  0.5981898788583000
  0.9018101211417000  0.0010036167727630  0.1314606909097000
  0.0981898788583000  0.5010036167727629  0.3685393090903000
  0.4018101211417000  0.4989963832272369  0.8685393090903000
  0.5981898788583000  0.9989963832272371  0.6314606909097000
  0.6518101211417000  0.3814606909097000  0.2489963832272370
  0.8481898788583000  0.6185393090903000  0.7489963832272371
  0.1518101211417000  0.1185393090903000  0.7510036167727629
  0.3481898788583000  0.8814606909097000  0.2510036167727630
  0.8814606909097000  0.2510036167727630  0.3481898788583000
  0.1185393090903000  0.7510036167727629  0.1518101211417000
  0.6185393090903000  0.7489963832272371  0.8481898788583000
  0.3814606909097000  0.2489963832272370  0.6518101211417000
  0.7510036167727629  0.1518101211417000  0.1185393090903000
  0.2510036167727630  0.3481898788583000  0.8814606909097000
  0.7489963832272371  0.8481898788583000  0.6185393090903000
  0.2510036167727630  0.1518101211417000  0.3814606909097000
  0.2489963832272370  0.3481898788583000  0.1185393090903000
  0.8685393090903000  0.5981898788583000  0.0010036167727630
  0.4989963832272369  0.3685393090903000  0.5981898788583000
  0.9989963832272371  0.1314606909097000  0.4018101211417000
  0.0010036167727630  0.6314606909097000  0.0981898788583000
  0.5010036167727629  0.8685393090903000  0.9018101211417000
  0.5981898788583000  0.4989963832272369  0.3685393090903000
  0.4018101211417000  0.9989963832272371  0.1314606909097000
  0.0981898788583000  0.0010036167727630  0.6314606909097000
  0.9018101211417000  0.5010036167727629  0.8685393090903000
  0.8481898788583000  0.1185393090903000  0.2510036167727630
  0.8685393090903000  0.9018101211417000  0.5010036167727629
  0.6518101211417000  0.8814606909097000  0.7510036167727629
  0.1518101211417000  0.6185393090903000  0.2489963832272370
  0.6185393090903000  0.2489963832272370  0.1518101211417000
  0.3814606909097000  0.7489963832272371  0.3481898788583000
  0.8814606909097000  0.7510036167727629  0.6518101211417000
  0.1185393090903000  0.2510036167727630  0.8481898788583000
  0.7489963832272371  0.3481898788583000  0.3814606909097000
  0.2489963832272370  0.1518101211417000  0.6185393090903000
  0.2510036167727630  0.8481898788583000  0.1185393090903000
  0.7510036167727629  0.6518101211417000  0.8814606909097000
  0.3481898788583000  0.3814606909097000  0.7489963832272371
  0.6314606909097000  0.0981898788583000  0.0010036167727630
  0.1314606909097000  0.4018101211417000  0.9989963832272371
  0.3685393090903000  0.5981898788583000  0.4989963832272369
  0.3685393090903000  0.9018101211417000  0.9989963832272371
  0.1314606909097000  0.0981898788583000  0.4989963832272369
  0.5010036167727629  0.6314606909097000  0.4018101211417000
  0.0010036167727630  0.8685393090903000  0.5981898788583000
  0.9989963832272371  0.3685393090903000  0.9018101211417000
  0.4989963832272369  0.1314606909097000  0.0981898788583000
  0.4018101211417000  0.5010036167727629  0.6314606909097000
  0.5981898788583000  0.0010036167727630  0.8685393090903000
  0.9018101211417000  0.9989963832272371  0.3685393090903000
  0.0981898788583000  0.4989963832272369  0.1314606909097000
  0.1518101211417000  0.8814606909097000  0.7489963832272371
  0.3481898788583000  0.1185393090903000  0.2489963832272370
  0.6518101211417000  0.6185393090903000  0.2510036167727630
  0.8481898788583000  0.3814606909097000  0.7510036167727629
  0.3814606909097000  0.7510036167727629  0.8481898788583000
  0.6185393090903000  0.2510036167727630  0.6518101211417000
  0.1185393090903000  0.2489963832272370  0.3481898788583000
  0.8814606909097000  0.7489963832272371  0.1518101211417000
  0.2510036167727630  0.6518101211417000  0.6185393090903000
  0.7510036167727629  0.8481898788583000  0.3814606909097000
  0.7489963832272371  0.1518101211417000  0.8814606909097000
  0.6314606909097000  0.4018101211417000  0.5010036167727629
  0.1314606909097000  0.9018101211417000  0.0010036167727630
