 H  O 
 1.0000000000000000
     4.3278642500000002    0.0000000000000000    0.0000000000000000
    -2.1639321249999992    3.7480403846304871    0.0000000000000000
     0.0000000000000006    0.0000000000000010    9.4657307900000003
  12   6
Direct
  0.7990629881351001  0.5283368504537000  0.4749302565950333
  0.7292738623185999  0.5283368504537000  0.0250697434049667
  0.5283368504537000  0.7990629881351001  0.1917364100716333
  0.2009370118648998  0.7292738623185999  0.8584030767383000
  0.2707261376814000  0.4716631495463000  0.5250697434049666
  0.2009370118648998  0.4716631495463000  0.9749302565950335
  0.2707261376814000  0.7990629881351001  0.3082635899283667
  0.5283368504537000  0.7292738623185999  0.6415969232617000
  0.4716631495463000  0.2009370118648999  0.6917364100716333
  0.7292738623185999  0.2009370118648999  0.8082635899283667
  0.4716631495463000  0.2707261376814000  0.1415969232617000
  0.7990629881351001  0.2707261376814000  0.3584030767383000
  0.0415289088667000  0.5207644544334000  0.9166666666666633
  0.4792355455667000  0.9584710911333000  0.2499999999999967
  0.4792355455666000  0.5207644544333000  0.5833333333333300
  0.9584710911333001  0.4792355455666000  0.4166666666666633
  0.5207644544333000  0.0415289088667000  0.7499999999999967
  0.5207644544334000  0.4792355455667000  0.0833333333333300
