 H  O 
 1.0000000000000000
    11.7143399299999995    0.0000000000000000    0.0000000000000000
     0.0000000000000003    4.3174368200000002    0.0000000000000000
     0.0000000000000003    0.0000000000000003    5.1600303099999998
  20  10
Direct
  0.8655112760273999  0.4663326012858000  0.2393993998303000
  0.9094351090720800  0.8298796048970000  0.9032637981578600
  0.0905648909279200  0.1701203951030000  0.9032637981578600
  0.3569450511738000  0.5282524144156400  0.6564317735382000
  0.6430549488262001  0.4717475855843600  0.6564317735382000
  0.8569450511737998  0.9717475855843599  0.1564317735382000
  0.1430549488262000  0.0282524144156400  0.1564317735382000
  0.6344887239726000  0.9663326012858000  0.7393993998303000
  0.3655112760274000  0.0336673987142000  0.7393993998303000
  0.1344887239726000  0.5336673987142000  0.2393993998303000
  0.5905648909279200  0.3298796048970000  0.4032637981578600
  0.7213477719270001  0.7874778265669000  0.9206795666128001
  0.4094351090720800  0.6701203951030000  0.4032637981578600
  0.2213477719270000  0.7125221734331000  0.4206795666127999
  0.7786522280729999  0.2874778265669000  0.4206795666127999
  0.4533649039931000  0.3694827188410000  0.0657964817285200
  0.5466350960069000  0.6305172811590001  0.0657964817285200
  0.9533649039931000  0.1305172811590000  0.5657964817285200
  0.0466350960069000  0.8694827188409999  0.5657964817285200
  0.2786522280730000  0.2125221734331000  0.9206795666128001
  0.0000000000000000  0.0000000000000000  0.6807472549457000
  0.8567490614384999  0.2800276587563000  0.3478281509041000
  0.3543416559166000  0.7133102687938000  0.5428822017550800
  0.8543416559165998  0.7866897312062000  0.0428822017550800
  0.1456583440834000  0.2133102687938000  0.0428822017550800
  0.1432509385615000  0.7199723412437000  0.3478281509041000
  0.3567490614385000  0.2199723412437000  0.8478281509040999
  0.6432509385615000  0.7800276587563000  0.8478281509040999
  0.6456583440834001  0.2866897312062000  0.5428822017550800
  0.5000000000000000  0.5000000000000000  0.1807472549457000
