 H  O 
 1.0000000000000000
    10.7379446099999996    0.0000000000000000    0.0000000000000000
     0.0000000000000004    6.2003470600000004    0.0000000000000000
    -0.2203641574567953    0.0000000000000004    6.4670484336809766
  36  18
Direct
  0.7911089278379000  0.7904375713392000  0.3612390171580999
  0.7288218216468000  0.5307953398561300  0.6713812324514000
  0.4611410771472000  0.2316168647789000  0.1772804934925000
  0.2088910721621000  0.7904375713392000  0.6387609828419001
  0.2911089278379000  0.2904375713392000  0.3612390171580999
  0.7088910721621000  0.2904375713392000  0.6387609828419001
  0.8614830162082000  0.1200933569676000  0.9864960439345301
  0.1385169837918000  0.1200933569676000  0.0135039560654700
  0.3614830162082000  0.6200933569676000  0.9864960439345301
  0.6385169837918000  0.6200933569676000  0.0135039560654700
  0.8550382738761000  0.3325180701955000  0.1200062268218000
  0.1449617261239000  0.3325180701955000  0.8799937731782000
  0.3550382738761000  0.8325180701955001  0.1200062268218000
  0.6449617261239000  0.8325180701955001  0.8799937731782000
  0.8349191507718000  0.6845939291943000  0.0573583174406400
  0.1650808492282000  0.6845939291943000  0.9426416825593600
  0.3349191507718000  0.1845939291943000  0.0573583174406400
  0.6650808492282000  0.1845939291943000  0.9426416825593600
  0.9611410771472000  0.7316168647789000  0.1772804934925000
  0.0388589228528000  0.7316168647789000  0.8227195065075000
  0.2711781783532000  0.5307953398561300  0.3286187675486000
  0.2288218216468000  0.0307953398561300  0.6713812324514000
  0.5388589228528000  0.2316168647789000  0.8227195065075000
  0.1436091828100000  0.9377758238904401  0.3316640501262000
  0.0738343529775700  0.3710510331031000  0.4937585702227000
  0.9261656470224300  0.3710510331031000  0.5062414297773000
  0.4716263513220100  0.5783444679102100  0.6957856190650999
  0.5283736486779900  0.5783444679102100  0.3042143809349000
  0.9716263513220100  0.0783444679102100  0.6957856190650999
  0.5738343529775700  0.8710510331031001  0.4937585702227000
  0.4261656470224299  0.8710510331031001  0.5062414297773000
  0.7711781783532000  0.0307953398561300  0.3286187675486000
  0.8563908171900001  0.9377758238904401  0.6683359498738000
  0.0283736486779900  0.0783444679102100  0.3042143809349000
  0.3563908171900000  0.4377758238904400  0.6683359498738000
  0.6436091828100000  0.4377758238904400  0.3316640501262000
  0.3891272620091999  0.1363160530530000  0.1720978292315000
  0.0761711567872300  0.9699915178419600  0.2312430758666000
  0.1108727379908000  0.6363160530530000  0.8279021707685000
  0.5000000000000000  0.7814798802073000  0.5000000000000000
  0.6108727379908000  0.1363160530530000  0.8279021707685000
  0.8891272620092000  0.6363160530530000  0.1720978292315000
  0.7453464658861000  0.4159161596936100  0.5733505104946000
  0.5761711567872300  0.4699915178419600  0.2312430758666000
  0.4238288432127701  0.4699915178419600  0.7687569241334000
  0.6851411937003999  0.6945648720727000  0.9074539634312500
  0.3148588062996000  0.6945648720727000  0.0925460365687500
  0.1851411937004000  0.1945648720727000  0.9074539634312500
  0.8148588062996002  0.1945648720727000  0.0925460365687500
  0.7546535341139000  0.9159161596936100  0.4266494895054000
  0.2453464658861000  0.9159161596936100  0.5733505104946000
  0.2546535341139000  0.4159161596936100  0.4266494895054000
  0.9238288432127700  0.9699915178419600  0.7687569241334000
  0.0000000000000000  0.2814798802073000  0.5000000000000000
