 H  O 
 1.0000000000000000
     6.5565709500000002    0.0000000000000000    0.0000000000000000
     0.1384945350858353    6.5568287296589078    0.0000000000000000
     3.2656318256920813   -0.0023008134678901    7.0023298424434586
  24  12
Direct
  0.7299675726066999  0.9151987649525800  0.8096813029659000
  0.7293251841513000  0.5922171923679000  0.3094271987825000
  0.2706748158487000  0.4077828076321000  0.6905728012175000
  0.4775319269786000  0.8640320530753001  0.6702548821374000
  0.5224680730214000  0.1359679469247000  0.3297451178626000
  0.6960550541007999  0.9783107853102100  0.5443142438347000
  0.3039449458992000  0.0216892146897900  0.4556857561653000
  0.3057517050016000  0.2315390466635000  0.9297981437444699
  0.6942482949984000  0.7684609533365000  0.0702018562555300
  0.5280845881674000  0.3546126677847000  0.8305437538061999
  0.4719154118326000  0.6453873322153000  0.1694562461938000
  0.2472537255145000  0.3491225548842000  0.5039721366990000
  0.2700324273933000  0.0848012350474200  0.1903186970341000
  0.7913554132566001  0.0943742380114900  0.9093734197781700
  0.7527462744855000  0.6508774451157999  0.4960278633010000
  0.2163997516394000  0.7079491960641000  0.6073752230741001
  0.2641444687582000  0.5492777628305000  0.0280992328142500
  0.7836002483605999  0.2920508039359000  0.3926247769259000
  0.0785892353443300  0.8883209045635000  0.7412885485410000
  0.9214107646556700  0.1116790954365000  0.2587114514590000
  0.7358555312418000  0.4507222371695000  0.9719007671857500
  0.2086445867434000  0.9056257619885100  0.0906265802218300
  0.0803358328648800  0.6081474427783999  0.2342155997484000
  0.9196641671351200  0.3918525572216000  0.7657844002516000
  0.8047171055230998  0.9451715137182100  0.8938819591248000
  0.7736164844667999  0.3521684997253999  0.8674109582630000
  0.8090738806230001  0.5542752580248000  0.3889343212602000
  0.1909261193769999  0.4457247419752000  0.6110656787398001
  0.6383080944916000  0.8697027690673999  0.6414730708863000
  0.3616919055084000  0.1302972309326000  0.3585269291137000
  0.2267672047813000  0.8511458664083000  0.6388732426159001
  0.3686492698523000  0.3549660728906001  0.8535767327242000
  0.6313507301476999  0.6450339271094000  0.1464232672758000
  0.1952828944769000  0.0548284862817900  0.1061180408752000
  0.7732327952187000  0.1488541335917000  0.3611267573841000
  0.2263835155332000  0.6478315002746000  0.1325890417370000
