 H  O 
 1.0000000000000000
     2.9391918100000001    0.0000000000000000    0.0000000000000000
     0.7417512839132504    7.6952615183789854    0.0000000000000000
     0.1377245222026365    0.0091199861182162    4.3362700173778821
   8   4
Direct
  0.9450445824215500  0.0861304870420200  0.0573984013189300
  0.6143727812322000  0.2151124415687000  0.2508385113822000
  0.9582986988217300  0.0295393219986900  0.5576554090604000
  0.6990981172106001  0.8994544829833000  0.7543125446962000
  0.9255915200347500  0.4092329889403001  0.7478620900017000
  0.6032220445152001  0.5377305754197000  0.5575106287778999
  0.2396004472762000  0.7232102531147999  0.2557660826716000
  0.5639299655227000  0.5941305399436000  0.0577627108242000
  0.9246231919603800  0.1606446072095000  0.2424991279665000
  0.9801675070443100  0.9548925102453900  0.7430363269069000
  0.6152206885763001  0.4631964805178000  0.7431305550267000
  0.5495004553797000  0.6687053110164999  0.2426076113671000
