 H  O 
 1.0000000000000000
     7.5657714199999999    0.0000000000000000    0.0000000000000000
     0.0000000000000002    3.5458718800000000    0.0000000000000000
    -1.7173886459359067    0.0000000000000004    4.9858229609053337
  12   6
Direct
  0.6636826704412999  0.5985257906915999  0.6927765041728000
  0.1035886136028000  0.9195983126386600  0.2741646321020000
  0.1035886136028000  0.0804016873613400  0.7741646321020000
  0.7698713469331000  0.0845352187177600  0.1018593495925000
  0.7698713469331000  0.9154647812822400  0.6018593495925000
  0.6636826704412999  0.4014742093084000  0.1927765041728000
  0.9970188104829130  0.3852717451302000  0.5723288221637000
  0.9970188104829130  0.6147282548698000  0.0723288221637000
  0.3320477298876000  0.6106997385144000  0.7609918546607000
  0.3320477298876000  0.3893002614856000  0.2609918546607000
  0.4368228512602000  0.9266039881142401  0.9526787564882000
  0.4368228512602000  0.0733960118857600  0.4526787564882000
  0.6564062355561000  0.7636017519444002  0.5439126928626000
  0.9893037898254300  0.2298714745807000  0.7187654845539000
  0.9893037898254300  0.7701285254193000  0.2187654845539000
  0.3238279520106000  0.7731140824725000  0.9037119034034999
  0.6564062355561000  0.2363982480556000  0.0439126928626000
  0.3238279520106000  0.2268859175275000  0.4037119034035000
