 H  O 
 1.0000000000000000
     4.3655440299999997    0.0000000000000000    0.0000000000000000
     0.0000000000000005    7.5074989800000003    0.0000000000000000
    -0.0869769741824402    0.0000000000000004    7.0669114397951267
  16   8
Direct
  0.8186221229202000  0.7269644404730000  0.6005279037569000
  0.3185408872957000  0.7707883751034000  0.5692840881790000
  0.3185408872956999  0.2292116248966000  0.0692840881790000
  0.0016618115310000  0.4545220697870900  0.5697698893278800
  0.0016618115310000  0.5454779302129100  0.0697698893278800
  0.5016618115310000  0.9545220697870900  0.5697698893278800
  0.5016618115310000  0.0454779302129100  0.0697698893278800
  0.8185408872957000  0.7292116248966000  0.0692840881790000
  0.8186221229202000  0.2730355595270000  0.1005279037569000
  0.8185408872957000  0.2707883751034000  0.5692840881790000
  0.3186221229202000  0.7730355595270000  0.1005279037569000
  0.0032517869472000  0.6674552009965999  0.7853213265659000
  0.0032517869472000  0.3325447990034000  0.2853213265658999
  0.5032517869472000  0.1674552009966000  0.7853213265659000
  0.5032517869472000  0.8325447990034001  0.2853213265658999
  0.3186221229201999  0.2269644404730000  0.6005279037569000
  0.5051319346812000  0.1695977636120000  0.0222589121884200
  0.5051319346811999  0.8304022363880000  0.5222589121884200
  0.0051319346812000  0.6695977636120000  0.0222589121884200
  0.0051319346812000  0.3304022363880001  0.5222589121884200
  0.0064514566247000  0.6650128584755000  0.6452978799818999
  0.0064514566247000  0.3349871415245000  0.1452978799819000
  0.5064514566247000  0.1650128584755000  0.6452978799818999
  0.5064514566247000  0.8349871415245000  0.1452978799819000
