 H  O 
 1.0000000000000000
    10.2726769800000000    0.0000000000000000    0.0000000000000000
     5.0092829240396268    9.0116229389753197    0.0000000000000000
     0.0344819425755308    0.0293402133102001    5.4242035490544946
  36  18
Direct
  0.5722994931089999  0.5899178021335000  0.2410439002886000
  0.4957565476126000  0.5696956011211001  0.0051773880537720
  0.2053369937824000  0.8659601146758000  0.4139332514480000
  0.9246088926170100  0.6966806213865999  0.0704060116667000
  0.9533630204333299  0.5690516049480000  0.2563409795092000
  0.5119386754165000  0.7670312270639001  0.9161119470106601
  0.5696114085443001  0.8294559660120000  0.6901341518429001
  0.7373083761946000  0.3578683101716000  0.4048256332894999
  0.7541232108325999  0.4671608440190000  0.5860443642727000
  0.6092259992987000  0.9209592993674101  0.3497217463532000
  0.5381660834904000  0.0981945244844100  0.0700176609769100
  0.5360916337097000  0.3520536345690000  0.8531875209960998
  0.5593375362894000  0.4569652061122000  0.6652855808264000
  0.1381768877792000  0.3546955543049000  0.4038721116584000
  0.1367180930874000  0.4988699736799000  0.5229741079384000
  0.0867181832231700  0.1000709308840000  0.8526603950845001
  0.9763519426727499  0.2710978561847000  0.9065379856687299
  0.9066511422577801  0.9182378485853500  0.7465009370250000
  0.7798242270597001  0.9302951890436399  0.5697438301452000
  0.4910364488619999  0.9758351860465400  0.0089191402588510
  0.7498997772020000  0.7640124856065000  0.3530761745578000
  0.3176888802321000  0.7415151995267000  0.2338499067879000
  0.8695385794661001  0.5234486987892000  0.9171128498457101
  0.0995638183234500  0.7076247324639999  0.8378380562624000
  0.0813200436967200  0.8007783116454000  0.0750724417785100
  0.2127582226921000  0.0645064912975700  0.5124107450687000
  0.3096823625742999  0.9361069374599201  0.6960164854233000
  0.9080026743364400  0.1581091806401000  0.1899573222727000
  0.8433527408660000  0.1008520924252000  0.4131067783664000
  0.2171571223396000  0.6602767802045000  0.4974937921739000
  0.3198291858647000  0.1373072732939000  0.2405467549134000
  0.3188018925722000  0.5345869670020000  0.6889147896836000
  0.9624667051957800  0.4529271268879000  0.6757753857986000
  0.6981558585064001  0.1799791100456000  0.0871450902584100
  0.7007974314598999  0.1111017293293000  0.8289289668353000
  0.1522793800562000  0.1787823431641000  0.1758109716806000
  0.4899995120233001  0.8541945872078001  0.8124354823185999
  0.2160640123667000  0.7863634713224000  0.3021172054635000
  0.4976068616476000  0.6452369812050001  0.1145194040684000
  0.8272455131515998  0.9865226624351500  0.6346272672009000
  0.2094012433523000  0.9894747205682100  0.6237983300417000
  0.8885792922448000  0.4487127044714000  0.7898519711133000
  0.0304652415823600  0.1717179748569000  0.9835806455696001
  0.0737586857432300  0.4570203615039999  0.4639114833099000
  0.8775521881931000  0.6417990128144000  0.1425884825735000
  0.4906162551783000  0.4560010946519999  0.7937197073759000
  0.2156495651124000  0.5920577553182000  0.6257968401613000
  0.6831310590343999  0.8457163749520999  0.4623588334393000
  0.4910485345971000  0.0420823820498400  0.1403089690623000
  0.6321964394181000  0.1784259049219000  0.9562845538201701
  0.2168641482594000  0.1825164701193000  0.3071922885519000
  0.6838456938141000  0.4589200972680000  0.4725893558830001
  0.8197781263701002  0.1799307839575000  0.2904695174267000
  0.0243681562547500  0.7820239058005000  0.9498045065999499
