 H  O 
 1.0000000000000000
     6.0709882899999998    0.0000000000000000    0.0000000000000000
     0.8567233337732367    2.7798119760546887    0.0000000000000000
     6.2822638980245831    6.1556318949433884   23.3157938111977856
  32  16
Direct
  0.2366986806602001  0.1734608365717000  0.1707756803288000
  0.2120189934722000  0.7388845937505999  0.2259734118799000
  0.7395200325605999  0.7836170237492999  0.5626237258196001
  0.0766218175609199  0.8355091484316000  0.8208758087738000
  0.9695441828312600  0.4837361912765998  0.8751380870492000
  0.7017526528954000  0.0928836241755300  0.3129737891780000
  0.6747699356117004  0.6688490491120999  0.3685248823856000
  0.0635474309753200  0.2514667411547000  0.4266796544971000
  0.7659923782139999  0.7522253401116002  0.6698961243003000
  0.0160416408911000  0.8406186704642995  0.4824881253491001
  0.6603465810332000  0.8718747185202002  0.2063328966636000
  0.6728351818824001  0.5490918615911000  0.9441952801498700
  0.8770012611012001  0.6921957761134003  0.9577927657013999
  0.0749108045805398  0.8988972124111998  0.6874519892362001
  0.2757967903815999  0.0631699400993501  0.7000793205621000
  0.2483065711003999  0.0786600220160100  0.0621261056624100
  0.0196474585225800  0.4910157414785999  0.0589909567596700
  0.8895184232272001  0.0511149668591500  0.1912336571972000
  0.7010289515612996  0.9337468700249700  0.7256469707040001
  0.9585376155637101  0.3397950361596002  0.5662125474287000
  0.6778473618295999  0.3056686855876000  0.0668712055170500
  0.7413774310493000  0.7096679240720005  0.8123522856736999
  0.6974168081867997  0.4268599622702999  0.1215328060178000
  0.3800002161507000  0.6576836725510002  0.4403003172141000
  0.5847470828453001  0.1861570521913999  0.4517808838224001
  0.0395483914057800  0.5652517027641000  0.3128686375234000
  0.2675407973292001  0.1491933095983001  0.3064986218451000
  0.3665487626683999  0.4638245951307000  0.9218477963500600
  0.5141295071079001  0.1259451691337996  0.8062307804949002
  0.3744769919790000  0.9115169934684703  0.6161106649564000
  0.3033553764188001  0.6208365912738000  0.9788746342242900
  0.4094485114325000  0.3350145666946999  0.5607425670016000
  0.3855617241148001  0.7036524500976998  0.9388409240096900
  0.1910967796902000  0.4355740537876001  0.0503845718482500
  0.9122218902416502  0.6990847264054000  0.5547038155898000
  0.2447905533030001  0.8110675734933999  0.6871493268101000
  0.5927705780566002  0.8072920339750003  0.7981338164905000
  0.7186046712542999  0.1708231598566000  0.1930202021514000
  0.7836574887445003  0.0019600150128109  0.6855855092480000
  0.4404130012809001  0.9765892463886900  0.5747808293775001
  0.0878055044985099  0.8944308162448003  0.4415245355236000
  0.2101145962160000  0.5066228797181000  0.2990423002937000
  0.7391689856598000  0.7345946353153001  0.3271103639233000
  0.0154688690789699  0.5405582611450997  0.8331509605122002
  0.7133198535828000  0.5540693589294000  0.0795416233381300
  0.1866120845069000  0.8645078576564998  0.1859432663517000
  0.8417697249796000  0.4399095134345000  0.9457584113494399
  0.5506390717614000  0.5457398297321000  0.4394365629150000
