 H  O 
 1.0000000000000000
     7.5374268400000002    0.0000000000000000    0.0000000000000000
     0.0000000000000005    7.5374268400000002    0.0000000000000000
     0.0000000000000003    0.0000000000000003    4.3629042900000004
  16   8
Direct
  0.2356991438637000  0.7643008561363001  0.3174031352184000
  0.6907339494225000  0.4557886807743000  0.0000000000000000
  0.3092660505775000  0.5442113192257000  0.0000000000000000
  0.5442113192257000  0.3092660505775000  0.0000000000000000
  0.4557886807743000  0.6907339494225000  0.0000000000000000
  0.8092660505774999  0.9557886807743000  0.5000000000000000
  0.1907339494225000  0.0442113192257000  0.5000000000000000
  0.0442113192257000  0.1907339494225000  0.5000000000000000
  0.7643008561363001  0.2356991438637000  0.3174031352184000
  0.9557886807743000  0.8092660505775000  0.5000000000000000
  0.2643008561363000  0.2643008561363000  0.8174031352184000
  0.2643008561363000  0.2643008561363000  0.1825968647815999
  0.7356991438636999  0.7356991438636999  0.1825968647815999
  0.7643008561363001  0.2356991438637000  0.6825968647816000
  0.2356991438637000  0.7643008561363001  0.6825968647816000
  0.7356991438636999  0.7356991438636999  0.8174031352184000
  0.1743125835413000  0.1743125835413000  0.5000000000000000
  0.8256874164587000  0.8256874164587000  0.5000000000000000
  0.3256874164587000  0.6743125835413000  0.0000000000000000
  0.6743125835413000  0.3256874164587000  0.0000000000000000
  0.3190860978715000  0.3190860978715000  0.0000000000000000
  0.6809139021285001  0.6809139021285001  0.0000000000000000
  0.8190860978714999  0.1809139021285000  0.5000000000000000
  0.1809139021285000  0.8190860978714999  0.5000000000000000
