 H  O 
 1.0000000000000000
     7.7267033500000002    0.0000000000000000    0.0000000000000000
     0.0108025759478478    7.7328070245129732    0.0000000000000000
     0.0135695603399132   -0.0465636106405041    6.7249571487579649
  32  16
Direct
  0.9326761657667000  0.6253022122512000  0.2092375559210000
  0.8491345439987000  0.5211966893321001  0.0289564123090700
  0.0040087299968800  0.1394238481006000  0.2607762140594000
  0.4362312819348000  0.1284309829120000  0.7123085797890000
  0.2677984582465000  0.2087877687188000  0.6175503604873001
  0.7830868777840000  0.2781400235170000  0.8680832361176000
  0.9604575520560300  0.2740038726861000  0.9838201854752000
  0.5416436259341000  0.8707667097766000  0.2083836148433000
  0.6122962097672000  0.0595137339215700  0.9614596554434700
  0.7106460517584999  0.7915106426437000  0.1117467086146000
  0.1959634737840000  0.7223032581425000  0.3667946111318000
  0.7604318251556000  0.2024201834867000  0.4215785017719000
  0.7558535198615000  0.0256080073070600  0.3032690623341000
  0.9599535458889900  0.7686156686337000  0.5575430080045001
  0.8608279110577000  0.9418571909127400  0.5827648011044000
  0.2202732185953000  0.9748586446523000  0.8060986693088000
  0.0457230711751100  0.8782727608698000  0.8295971586029001
  0.1154496049317000  0.5536502881562000  0.4594709000807000
  0.5165842011659000  0.2348777509039000  0.9889174316819801
  0.1108772202988000  0.0598249465732000  0.0795071083231400
  0.0468123245159800  0.3743906031654000  0.7059523988662000
  0.2640107068905000  0.7110509236142000  0.9241658946938001
  0.2195359903472000  0.4733811741213000  0.7346500090801000
  0.5436820954556000  0.3751751605005000  0.3349274257666000
  0.7186410548752999  0.4702756772913000  0.3081976481020000
  0.3638934468928999  0.9416010225205600  0.4591446268538000
  0.4601565161796000  0.7672396237031001  0.4856123808123000
  0.6963456085117000  0.7225548507690001  0.6750091932968000
  0.4338523123489000  0.6281795453335000  0.8340995507547000
  0.2776819382905000  0.2814110580474000  0.1801435452019000
  0.6149253647310999  0.5531017741043001  0.5822158988884000
  0.3577049513248000  0.4500381432593000  0.0862868763268600
  0.5867124510828000  0.6593672730932000  0.6577473744201000
  0.1530497698335000  0.9062157420476200  0.9021705669896800
  0.0862268300026900  0.1675807154612000  0.1537213769516000
  0.8896729568415001  0.8347589845660000  0.6542556991190001
  0.3264817397157000  0.6008974618433001  0.9067880423494100
  0.0865339345221700  0.6587502276016000  0.3840119343542000
  0.5870414895043000  0.1687457098909000  0.8924653976159000
  0.3867807220407999  0.3444687970076000  0.1603492476188000
  0.6459979607354001  0.9003200690770700  0.1311230410457000
  0.3902217000675000  0.8323412756169000  0.3890680250944000
  0.8933427474422000  0.3401358766774000  0.8853103609671000
  0.3316105197092000  0.0995540346728500  0.6351481377916000
  0.1558467824564000  0.4022087586067000  0.6368235121821000
  0.8232666306914000  0.6018501008334001  0.1390099534403000
  0.8231444719158001  0.0925599494546100  0.4015766925563000
  0.6535098939169999  0.3993902836223000  0.4041714134556000
