 H  O 
 1.0000000000000000
     7.9302144099999996    0.0000000000000000    0.0000000000000000
     0.0000000000000005    7.4561375700000001    0.0000000000000000
    -3.6214414212720265    0.0000000000000006    5.0333350501124245
  24  12
Direct
  0.3725384912138000  0.1510857002490000  0.1027577428059000
  0.2403311952794000  0.9005052224374300  0.1904791976732000
  0.2403311952794000  0.0994947775625700  0.6904791976732000
  0.6873830501430001  0.3303291979995000  0.9197407091335000
  0.6873830501430002  0.6696708020005000  0.4197407091335001
  0.1873830501430000  0.8303291979995000  0.9197407091335000
  0.1873830501430000  0.1696708020005000  0.4197407091335001
  0.0107659705866001  0.7159179430671000  0.0167624145592000
  0.0107659705866001  0.2840820569329000  0.5167624145592000
  0.5107659705866000  0.2159179430671000  0.0167624145592000
  0.5107659705866000  0.7840820569329000  0.5167624145592000
  0.8725384912138000  0.6510857002490000  0.1027577428059000
  0.8725384912138000  0.3489142997510000  0.6027577428059000
  0.7403311952794001  0.5994947775625700  0.6904791976732000
  0.3725384912138000  0.8489142997510000  0.6027577428059000
  0.7403311952794001  0.4005052224374300  0.1904791976732000
  0.3899024557534000  0.4171491638578700  0.3556200327079000
  0.3899024557534000  0.5828508361421300  0.8556200327079000
  0.8899024557533999  0.9171491638578700  0.3556200327079000
  0.8899024557534000  0.0828508361421300  0.8556200327079000
  0.1510868261209000  0.4237746229955000  0.1696143738331000
  0.6510868261209000  0.0762253770045000  0.6696143738331000
  0.6510868261208999  0.9237746229954999  0.1696143738331000
  0.1510868261209000  0.5762253770045001  0.6696143738331000
  0.9380417459586000  0.3913689630128000  0.5206966392856001
  0.7680712177664000  0.8412238604275000  0.2607401238751000
  0.2680712177664000  0.6587761395725000  0.7607401238751000
  0.2680712177664000  0.3412238604275000  0.2607401238751000
  0.1252790471779000  0.8850865816893000  0.0007787661264000
  0.6252790471778999  0.6149134183107000  0.5007787661264000
  0.9380417459586000  0.6086310369872000  0.0206966392856000
  0.1252790471779000  0.1149134183107000  0.5007787661264000
  0.4380417459586000  0.8913689630128000  0.5206966392856001
  0.4380417459586000  0.1086310369872000  0.0206966392856000
  0.6252790471778999  0.3850865816893000  0.0007787661264000
  0.7680712177664000  0.1587761395725000  0.7607401238751000
