 H  O 
 1.0000000000000000
     6.9971785100000004    0.0000000000000000    0.0000000000000000
     0.0000000000000004    6.9996841300000003    0.0000000000000000
     0.0000000000000003    0.0000000000000003    4.4573070200000000
  16   8
Direct
  0.3545571621555000  0.8280970415591000  0.3206297808027000
  0.1253425015040000  0.8324427950563000  0.0000000000000000
  0.8746574984960001  0.1675572049437000  0.0000000000000000
  0.2919467385919001  0.5392465174554600  0.5000000000000000
  0.7080532614080999  0.4607534825445400  0.5000000000000000
  0.2080532614081000  0.0392465174554600  0.0000000000000000
  0.7919467385919000  0.9607534825445400  0.0000000000000000
  0.6253425015039999  0.6675572049437000  0.5000000000000000
  0.6454428378445000  0.1719029584409000  0.3206297808027000
  0.3746574984960000  0.3324427950563000  0.5000000000000000
  0.8545571621555000  0.6719029584409000  0.1793702191973000
  0.6454428378445000  0.1719029584409000  0.6793702191973000
  0.3545571621555000  0.8280970415591000  0.6793702191973000
  0.8545571621555000  0.6719029584409000  0.8206297808027000
  0.1454428378445000  0.3280970415591000  0.8206297808027000
  0.1454428378445000  0.3280970415591000  0.1793702191973000
  0.7529624755616999  0.0961131380091900  0.0000000000000000
  0.2470375244383000  0.9038868619908100  0.0000000000000000
  0.7470375244383000  0.5961131380091900  0.5000000000000000
  0.2529624755617000  0.4038868619908100  0.5000000000000000
  0.5980811735655600  0.2394833194651000  0.5000000000000000
  0.4019188264344400  0.7605166805349000  0.5000000000000000
  0.9019188264344400  0.7394833194651000  0.0000000000000000
  0.0980811735655600  0.2605166805349000  0.0000000000000000
