 H  O 
 1.0000000000000000
     5.9429142099999996    0.0000000000000000    0.0000000000000000
    -3.7026563720800705    5.6527593445787581    0.0000000000000000
    -4.3824187866533784   -0.8157398319270395    4.2055510634711508
  12   6
Direct
  0.6529108072343000  0.0004104028097964  0.4086783172453000
  0.8162658530831001  0.7220200250597000  0.5267524147110000
  0.1391897675553001  0.6977952128631001  0.8545373025953000
  0.3616291451381000  0.0316265928807400  0.6978764137421001
  0.3379334088546000  0.2618712567196000  0.6223102447171001
  0.9701398170886301  0.4228821396356000  0.4414059630547000
  0.5907277883796000  0.8172512435654000  0.6099425710614000
  0.7843995964489000  0.2762515371514000  0.1432847013780000
  0.6302715437970000  0.6398398856634999  0.0136730746952100
  0.0296860193724400  0.7906035236221001  0.1375202690712000
  0.3370668777109000  0.2798731885164000  0.2285114892076000
  0.0016166424961560  0.2956536469281000  0.9123784808441699
  0.5154707216420999  0.2076596631944000  0.7376234507021000
  0.7847555028225998  0.7762927482054000  0.9854618121116999
  0.0448628697436199  0.7236621426023000  0.6466645234107000
  0.9300927055502399  0.2861121764660000  0.3714585731278000
  0.4931295167721000  0.8327115148230000  0.3954549236682000
  0.2562314163097000  0.3417330992928000  0.0367554746561900
