 H  O 
 1.0000000000000000
    12.3296129699999995    0.0000000000000000    0.0000000000000000
    -6.1648064849999971   10.6777580508501018    0.0000000000000000
     0.0000000000000003    0.0000000000000005    4.5024063800000000
  24  12
Direct
  0.1905794749316000  0.5134494128020000  0.7671322882814666
  0.4767284416256001  0.9790384639910801  0.8471696713553001
  0.4976899776345200  0.4767284416256000  0.0138363380219666
  0.9790384639910800  0.5023100223654799  0.6805030046886333
  0.5232715583744001  0.0209615360089200  0.3471696713553000
  0.3752279286558999  0.5054967432732000  0.4117266914956667
  0.1302688146173000  0.6247720713441001  0.0783933581623333
  0.4945032567268000  0.8697311853827000  0.7450600248290000
  0.6247720713441001  0.4945032567267999  0.9117266914956667
  0.8697311853827001  0.3752279286558999  0.5783933581623333
  0.5054967432732000  0.1302688146173000  0.2450600248290000
  0.0209615360089200  0.4976899776345200  0.1805030046886333
  0.3228699378704000  0.8094205250684001  0.4337989549481334
  0.4865505871980000  0.6771300621295999  0.1004656216147999
  0.5023100223654799  0.5232715583744000  0.5138363380219667
  0.6771300621295999  0.1905794749316000  0.9337989549481333
  0.6083639254196000  0.3496280134519000  0.3459232018359000
  0.6503719865481000  0.2587359119677000  0.6792565351692332
  0.7412640880323000  0.3916360745804000  0.0125898685025665
  0.8094205250684000  0.4865505871980000  0.2671322882814666
  0.3496280134519000  0.7412640880323000  0.1792565351692335
  0.3916360745804000  0.6503719865481000  0.8459232018359000
  0.2587359119677000  0.6083639254196000  0.5125898685025666
  0.5134494128020000  0.3228699378704000  0.6004656216148000
  0.0712973115310000  0.5416617756582001  0.0060390675343334
  0.4583382243417999  0.5296355358728000  0.3393724008676666
  0.5416617756582001  0.4703644641272001  0.8393724008676666
  0.9287026884689998  0.4583382243417999  0.5060390675343334
  0.5296355358728000  0.0712973115310000  0.1727057342010000
  0.2629403879343000  0.5450516557961000  0.6372924128306666
  0.2821112678618000  0.7370596120657000  0.3039590794973335
  0.4549483442039000  0.7178887321381999  0.9706257461640001
  0.7370596120657001  0.4549483442039000  0.1372924128306665
  0.7178887321381999  0.2629403879343000  0.8039590794973333
  0.4703644641272000  0.9287026884689999  0.6727057342010000
  0.5450516557961000  0.2821112678618000  0.4706257461640000
