 H  O 
 1.0000000000000000
    12.7108023200000009    0.0000000000000000    0.0000000000000000
     1.8183440109361035    4.0210881299590246    0.0000000000000000
    -1.3138894747227834   -1.5697109270908680    6.6106835845280942
  24  12
Direct
  0.6925638299597999  0.1931970234310000  0.2747767079614000
  0.4672137420111000  0.3959154229819000  0.0677151017911000
  0.4964301813365000  0.6047817664320000  0.2716270986392000
  0.9935640910278510  0.5455423726982001  0.4591108371475000
  0.8756957463039001  0.5450700473750000  0.5033070782061000
  0.0229270942178900  0.0141533090687000  0.4841605129715000
  0.0783410156278200  0.8410030184696999  0.6689438534014999
  0.6570958822713999  0.9062068396444700  0.9718287399042400
  0.7891574782271000  0.6604896066462000  0.0096214488895180
  0.0180878037702000  0.0567311088085800  0.9643311198681400
  0.1400413911215000  0.0794655278576500  0.9563235476161300
  0.4768056404666000  0.9349337830934600  0.8182631732453001
  0.6831356614792000  0.1307098585396000  0.4787788521205000
  0.2628354482241000  0.3179249590885000  0.1220299957383000
  0.4997223644083000  0.8249797126888000  0.0247088588847900
  0.9021048220741201  0.3218559493546000  0.1972403044027000
  0.3211754131512001  0.6185848024961000  0.4758506403341000
  0.8299629796935000  0.1422614538652000  0.0271032752284600
  0.2046254004874000  0.5722238795003000  0.4402906258123000
  0.3032977784062000  0.0897872775752900  0.7465998664505001
  0.3349734289524000  0.1477751124717000  0.5546185270332000
  0.1754854331727000  0.5404001714643000  0.9759431612122800
  0.7435124206727000  0.8325273695126000  0.7302114442052000
  0.7062606713421000  0.6177022348042001  0.5225763913036000
  0.6601324996636001  0.3107625214006000  0.4037859925182000
  0.5234860976480999  0.9437763703897900  0.9487469597435501
  0.4534668481437000  0.6310512441419001  0.1426148584629000
  0.7439506756019000  0.7846254494958000  0.5826974698602000
  0.3551124496507000  0.9801570592988300  0.6380826680653999
  0.0659865276886300  0.7902996770583000  0.5190664939881000
  0.7387222125389000  0.8910714931902000  0.9881123614814700
  0.8770465198003999  0.2781409767252000  0.0497696741576500
  0.0956639304377500  0.9279193726296799  0.9165490191183200
  0.2209973354197000  0.3035646682563000  0.9880982372722500
  0.9466661054272600  0.4017724454101000  0.4319749384001000
  0.2865430795706000  0.4488361141403000  0.4131801645648000
