 H  O 
 1.0000000000000000
    10.3820541800000008    0.0000000000000000    0.0000000000000000
     0.0000000000000005    7.6494446399999996    0.0000000000000000
    -1.5774672139533215    0.0000000000000004    3.8975788175205386
  24  12
Direct
  0.9046918247833799  0.1020842157425000  0.1990549937958000
  0.5643796230309900  0.1669781980300000  0.4462987223149000
  0.4356203769690100  0.1669781980300000  0.5537012776850999
  0.9356203769690099  0.3330218019700000  0.5537012776850999
  0.0643796230309900  0.3330218019700000  0.4462987223149000
  0.0643796230309900  0.6669781980300000  0.4462987223149000
  0.9356203769690099  0.6669781980300000  0.5537012776850999
  0.5953081752166201  0.3979157842575000  0.8009450062042001
  0.4046918247833799  0.3979157842575000  0.1990549937958000
  0.4046918247833799  0.6020842157425000  0.1990549937958000
  0.5953081752166201  0.6020842157425000  0.8009450062042001
  0.0953081752166200  0.8979157842575000  0.8009450062042001
  0.9046918247833799  0.8979157842575000  0.1990549937958000
  0.5643796230309900  0.8330218019700000  0.4462987223149000
  0.0953081752166200  0.1020842157425000  0.8009450062042001
  0.4356203769690100  0.8330218019700000  0.5537012776850999
  0.7741444918877001  0.5000000000000000  0.7211337554632999
  0.2258555081123000  0.5000000000000000  0.2788662445367000
  0.2741444918877000  0.0000000000000000  0.7211337554632999
  0.7258555081122999  0.0000000000000000  0.2788662445367000
  0.7542610956946001  0.5000000000000000  0.3323889803070000
  0.7457389043054000  0.0000000000000000  0.6676110196930000
  0.2542610956946000  0.0000000000000000  0.3323889803070000
  0.2457389043054000  0.5000000000000000  0.6676110196930000
  0.6514087840818000  0.5000000000000000  0.9150472122068100
  0.3254910497196001  0.0000000000000000  0.5668786410001000
  0.1745089502804000  0.5000000000000000  0.4331213589999000
  0.8254910497196000  0.4999999999999999  0.5668786410001000
  0.0000000000000000  0.2547650612565000  0.5000000000000000
  0.5000000000000000  0.2452349387435000  0.5000000000000000
  0.3485912159182000  0.5000000000000000  0.0849527877931900
  0.0000000000000000  0.7452349387435001  0.5000000000000000
  0.1514087840818000  0.0000000000000000  0.9150472122068100
  0.8485912159181999  0.0000000000000000  0.0849527877931900
  0.5000000000000000  0.7547650612565000  0.5000000000000000
  0.6745089502804000  0.0000000000000000  0.4331213589999000
