 H  O 
 1.0000000000000000
    14.5640014900000008    0.0000000000000000    0.0000000000000000
     0.1631313472722412   10.7142462216863485    0.0000000000000000
    -0.8488375550041887   -5.2265090430102479    9.0732436525585882
 104  52
Direct
  0.6185942607131000  0.2495794239767000  0.5979921162637001
  0.3035022929457000  0.7816172058205000  0.1591212200673000
  0.3313712756475000  0.7869865121675000  0.3087631335367000
  0.3661910375147000  0.8203860391868000  0.7292952038317000
  0.3045435760147000  0.9324769732466500  0.7034420317822000
  0.7215716955160000  0.2329170560222000  0.2190087373613000
  0.7133175057757000  0.1187987021638000  0.2710654503261000
  0.7388870569072000  0.7621889310057999  0.6522396632142999
  0.6794800245274001  0.8996545248620001  0.6909160155874000
  0.3207114067994000  0.1770561390389000  0.4796263532565000
  0.2891073953966000  0.0125142061741700  0.3903305526883000
  0.6866356715267000  0.8884883589013000  0.1231211294344000
  0.7341443694326000  0.8837657919049001  0.2595920728505000
  0.3038766197916001  0.1791828011508000  0.8125468337634000
  0.2827816734925000  0.1092013427603000  0.6351362369458000
  0.6946913994946999  0.6781279071234000  0.2690214249648000
  0.7291924421567000  0.7897774099127000  0.4302969270408000
  0.3447102159814000  0.5658864515166000  0.8527022413311001
  0.3856255385344000  0.4570971250904000  0.6972068578631000
  0.2251158980607000  0.7049300435117999  0.9226512516501498
  0.6003207144461000  0.0837223384721000  0.4986788067283000
  0.2571847502851000  0.6394196681149000  0.3496323442046000
  0.3141501994656000  0.7353827647508001  0.4993808582208000
  0.8570851459433000  0.3179335020459000  0.9025398065968800
  0.8878430653676000  0.4418882794304000  0.0659171562505000
  0.9829282792002600  0.5696253980454000  0.8261798990211000
  0.0303740772786200  0.6928309820402000  0.9753479940711800
  0.8671518098961000  0.5913370211860000  0.4203011706835000
  0.6123576083373000  0.1102852296141000  0.7551916369567000
  0.6631721460032001  0.1413350821303001  0.9058681984822601
  0.4252886981552000  0.5486851313979000  0.3098656186806000
  0.4158415240177000  0.4160795002810000  0.1501132700581000
  0.7771394206661000  0.2951623613120000  0.0590404447223200
  0.6815791843125000  0.3612692562460000  0.1067658922706000
  0.7872507031467000  0.6419308204577000  0.7966694386863000
  0.8504911112501000  0.6010817372655000  0.6716824835578000
  0.2169929641974000  0.2522787285688000  0.2684707011897000
  0.2294802978797000  0.3984829713228000  0.2769622199396000
  0.4815707110570000  0.0646383414533800  0.2859415390793000
  0.4396347952821000  0.9270264723890299  0.2770078187213000
  0.5072121828913000  0.1381935277283000  0.0878663949331400
  0.5264806099335000  0.0773239080673401  0.9223524867291801
  0.4352636003442000  0.6798080562991000  0.7855891762363000
  0.4938159171976000  0.7177037358825999  0.6905443386818000
  0.5051178500908999  0.3491977726397000  0.2913491344275000
  0.8052624748647000  0.4654930295129000  0.3993525608200000
  0.5888022176473998  0.2721943710783000  0.3267837968913000
  0.6030490018331000  0.6892384744397000  0.5562304808120000
  0.3404958458019000  0.3486956934191000  0.4398630779557000
  0.4422186126852000  0.3112298605779000  0.4574032038729000
  0.5390846906244999  0.8319655631637999  0.9456019109128299
  0.5423400372716002  0.8781500439895998  0.1144953195063000
  0.3027849502287000  0.2502438659716000  0.0505360095952700
  0.3986768641276000  0.1966294981895000  0.9903029689965820
  0.5815424579307999  0.6487287365137999  0.9595839665400300
  0.5064402526208001  0.5272711503886001  0.8806230127009000
  0.6046995087334999  0.5198149875632000  0.0616459398284700
  0.5653945303337000  0.5134607290610999  0.1925460637363000
  0.6889759302633001  0.4716283653644000  0.6413873948140000
  0.6118544408547000  0.4796587832153000  0.7404980109122000
  0.5753737000425000  0.5517808947807000  0.5609841666084000
  0.1818490606370000  0.4696062155290999  0.5071815096743000
  0.2166060315049000  0.5657998768774001  0.9365469645449501
  0.8300147824357000  0.6369686551088001  0.0195583192351600
  0.8476589078181002  0.6794642928300000  0.2442351346576000
  0.9514528647295800  0.6768925060945000  0.2070269306693000
  0.7637547538310000  0.5187640414549000  0.9009790604093700
  0.0920427460941900  0.4198797827336000  0.1881668174535000
  0.1436169578245000  0.4133375570080999  0.0558497112114200
  0.1628053819597000  0.0824297889117800  0.7308214312869000
  0.0828799541447700  0.0859867526510400  0.8245315475340000
  0.9859765412228600  0.0450421367867800  0.5917079778516000
  0.8842918954033000  0.0818212435131900  0.6224223197481000
  0.8377803448412000  0.9457534587935700  0.1466365988295000
  0.0096305223478910  0.9304656633369101  0.1663295780479000
  0.0866170804478800  0.8530495440410000  0.2126419832842000
  0.1385132061399000  0.6218718701649000  0.5644564970257000
  0.8978669231621000  0.1586406699129000  0.4464503218939000
  0.8955425908586999  0.8831128845136000  0.0102053342741500
  0.8184312744854000  0.2430281700629000  0.4128219044588000
  0.0336264224886100  0.7463530375206000  0.5258909456934999
  0.1098511630084000  0.8634888313458001  0.6103674701332999
  0.1534854593739000  0.1635091836767000  0.4921607672120000
  0.0748120802578700  0.2303594399875000  0.4428829933124999
  0.9312845883196500  0.7842853662818000  0.6468134395686000
  0.0524839966346800  0.4388959638698000  0.3920827771511000
  0.9557671558290300  0.4113140670878000  0.3084693279085000
  0.9106763389632599  0.8473168048283000  0.5402286022867999
  0.1351317557557000  0.0331768513923200  0.1580582747756000
  0.0437598100364200  0.8205815464814000  0.8244852098748000
  0.9516304719744300  0.1144687142851000  0.0708482798163000
  0.9770413928380700  0.9469254524696400  0.8718544391012000
  0.8260091893195000  0.2685181418933000  0.6442109891601000
  0.1064222764646000  0.1371464327891000  0.1010386088685000
  0.7440604488465000  0.2021824041512000  0.6775796092501001
  0.1052723328562000  0.6342277156510000  0.2124940324003000
  0.9480579848925700  0.2113447890901001  0.9998327445825638
  0.0914989788371700  0.7559277871298999  0.3696836335666000
  0.1298513886752000  0.3439467476041000  0.7814806759420000
  0.0254566256295900  0.5094171215186001  0.6177815836621000
  0.2229971538873000  0.8244576250561000  0.7956488967786000
  0.0823104697813300  0.4792587366364001  0.9003288646108302
  0.9390200190369000  0.4072424229040000  0.5826065430108001
  0.1873044000781001  0.9225370243837101  0.9509934683192600
  0.3838513556801000  0.3256267491657000  0.5012190909201000
  0.0941172936886600  0.2075312339437000  0.5182647358143000
  0.2576300708611999  0.6472966602690999  0.9603328924685099
  0.7155504689280000  0.2711101455324000  0.0737412175396100
  0.4976248899682000  0.9760233085953399  0.2836640289214000
  0.8957571659717001  0.9585264308242000  0.1116144837289000
  0.5504989839751999  0.6272241506292999  0.5440067949113000
  0.7875764579454000  0.6272990310546001  0.6963155847438001
  0.8901536068412000  0.6329167488280000  0.1676733041968000
  0.5223554471492000  0.2661867709368000  0.3030201559783000
  0.1358274660121000  0.4151943083536000  0.8851092390843001
  0.2469034258173000  0.3484290551421000  0.3305976059383000
  0.4589549140542000  0.7620692020855000  0.7797404513478000
  0.0983723418117200  0.0510191296192100  0.7253771877898000
  0.5767707203760000  0.8299935344318000  0.0262687033827800
  0.4781790554363000  0.0951475382147499  0.9883392626947599
  0.8050839577376999  0.2476177361739000  0.7180573216788000
  0.8484753394425000  0.4908765161687000  0.3512803510828000
  0.0749920919330100  0.9082233513015200  0.1616102370386000
  0.3494846587848000  0.2672300617530000  0.0007176768200559
  0.1355766950485000  0.5323802612421999  0.5677787547813999
  0.0057191283715630  0.5953306752133000  0.9272723505418698
  0.1816451406501000  0.8262575965951000  0.8658595406824000
  0.8773506011515000  0.3373782265369000  0.0017142779255700
  0.3176173601479000  0.6820354876856001  0.3910451333955000
  0.9807742351076000  0.1299441568707000  0.9998979184725753
  0.6246543625102000  0.1572743426450000  0.5954951432046001
  0.9787749665577700  0.8417926053267000  0.8209344746150999
  0.4005862639216000  0.5334264151861000  0.7987087262717000
  0.7359883663375000  0.7624015890996000  0.3281080477199000
  0.1608809884711000  0.1010041042327000  0.1302427681724000
  0.2736874807565000  0.0997117018329500  0.7222354028815000
  0.9634176298267800  0.5058014139725000  0.6448429915153000
  0.7340832622971001  0.9368023350800601  0.2054389727588000
  0.9206954522041999  0.7570787297489999  0.5421185028419000
  0.2764100620185000  0.1063768025197000  0.4743461308786000
  0.6998704295910000  0.8097137570285000  0.6100504559461000
  0.7802690566485000  0.6189524246374001  0.9430854341857600
  0.7157724525708000  0.2227102889851000  0.3061610765781000
  0.3065858875531000  0.8331156298096000  0.6840604806578000
  0.1473067940232000  0.4512489455643999  0.1623315740049000
  0.3311318413448000  0.8442651444900001  0.2591962447342000
  0.9231588571382200  0.0122227145153100  0.5505906101733000
  0.6245881778155001  0.0695095604968700  0.8189501927136000
  0.4594080811515000  0.4715245245493001  0.2361920087543000
  0.6285350227372000  0.4326349010772000  0.6377744746608001
  0.8698971676817000  0.2513631880240000  0.4837666460116001
  0.6231236844968999  0.5167334352585000  0.1522763715599000
  0.5726703743726999  0.5431779644493998  0.9128184059737199
  0.1009386137138000  0.7629113430172000  0.5314103595633000
  0.0201328017965600  0.3822615324489000  0.2955692824018000
  0.0786910871620200  0.7288163072350000  0.2653192995410000
