 H  O 
 1.0000000000000000
     4.3028256999999996    0.0000000000000000    0.0000000000000000
     0.0000000000000007   11.4130066699999997    0.0000000000000000
    -0.9478132639808231    0.0000000000000005    6.4020188220396559
  24  12
Direct
  0.0759756157539300  0.9463940195295000  0.3926306047045000
  0.5625149053134000  0.9284130242104001  0.3332003075268001
  0.4374850946866000  0.4284130242104001  0.6667996924732000
  0.4677951578700000  0.8623411739227002  0.7988108774821000
  0.5322048421300002  0.3623411739226999  0.2011891225179000
  0.2727845134156000  0.7621438036404000  0.6729945519758000
  0.7272154865844001  0.2621438036404000  0.3270054480242000
  0.7850177515243000  0.7391643025094000  0.6244742678741000
  0.2149822484757000  0.2391643025094000  0.3755257321259000
  0.9864138678330200  0.6364662886959001  0.5471197028829000
  0.0135861321669800  0.1364662886959000  0.4528802971171000
  0.6275558862510000  0.3159785074414000  0.7546550898404000
  0.9240243842460700  0.4463940195295000  0.6073693952954999
  0.9637560263007199  0.9768577851326000  0.6069612595617000
  0.3724441137490000  0.8159785074414001  0.2453449101596000
  0.4099165378130000  0.7044783477251001  0.9836799503270400
  0.1987068050361000  0.9756813483095801  0.0177418034257600
  0.5900834621870000  0.2044783477251000  0.0163200496729600
  0.2009679065458000  0.6216941008697000  0.1050175138706000
  0.7990320934542000  0.1216941008697000  0.8949824861294000
  0.8012931949638999  0.4756813483095800  0.9822581965742400
  0.0362439736992800  0.4768577851326001  0.3930387404383000
  0.3024437752997000  0.0738712427087200  0.8725365787343000
  0.6975562247003000  0.5738712427087200  0.1274634212657000
  0.9119873975538001  0.9877221709342999  0.4568387554257000
  0.8667662744548000  0.5168791482425800  0.1139846082994000
  0.3586425497085000  0.9009272139802000  0.2601974952691000
  0.6413574502915000  0.4009272139802000  0.7398025047309000
  0.4780662736055001  0.7803961166335001  0.7653322587604000
  0.5219337263945000  0.2803961166335000  0.2346677412396000
  0.3942516082334000  0.6676115501823000  0.1192014268753000
  0.9613318554280001  0.7216498553316999  0.5499695037173999
  0.0386681445720000  0.2216498553317000  0.4500304962826000
  0.0880126024462000  0.4877221709343000  0.5431612445742999
  0.6057483917666000  0.1676115501823000  0.8807985731247000
  0.1332337255452000  0.0168791482425800  0.8860153917006000
