 H  O 
 1.0000000000000000
     8.2672208499999993    0.0000000000000000    0.0000000000000000
     3.9922799670475464    9.5189525135846402    0.0000000000000000
     4.5791183302765646   -3.0611713759012407   13.4819536963277855
  80  40
Direct
  0.8127465000590999  0.9419156643757500  0.8483898745696000
  0.8861119273677001  0.6835241714194000  0.4597521337501000
  0.1138880726323000  0.3164758285806000  0.5402478662499000
  0.9039808745017701  0.2683095095830000  0.9063940763725800
  0.0960191254982299  0.7316904904170001  0.0936059236274200
  0.8245416484477999  0.3074693229725000  0.8232240153118000
  0.1754583515522000  0.6925306770274999  0.1767759846882000
  0.3029297140280999  0.9612736655516201  0.9929413003328449
  0.6970702859719000  0.0387263344483800  0.0070586996671550
  0.3555283500075000  0.0429659400986400  0.9098892707188400
  0.2162501056910000  0.2083059819592000  0.5973991185474000
  0.6444716499925000  0.9570340599013600  0.0901107292811600
  0.5572025460325000  0.0315527614267800  0.3516136346427000
  0.6207879766118998  0.8424060563383001  0.5656970410022000
  0.3792120233881000  0.1575939436617000  0.4343029589978000
  0.8214300033991001  0.0972974456461500  0.4935584276333000
  0.1872534999409000  0.0580843356242500  0.1516101254304000
  0.8550925361610999  0.0813531884268600  0.8630762268384000
  0.1449074638389000  0.9186468115731400  0.1369237731616000
  0.0849251355131401  0.8776031188638999  0.8645916059526000
  0.9150748644868600  0.1223968811361000  0.1354083940474000
  0.4427974539675001  0.9684472385732200  0.6483863653573000
  0.2804831668454998  0.8588450671959000  0.8689409232115000
  0.7837498943090000  0.7916940180408000  0.4026008814526000
  0.6122222589349000  0.7576449446743000  0.1555703496241000
  0.9874184206181401  0.9536654139547299  0.5963132545670000
  0.0125815793818600  0.0463345860452700  0.4036867454330000
  0.8274647999993001  0.9845931496624700  0.3621240275188999
  0.1725352000007000  0.0154068503375300  0.6378759724811001
  0.8843705880381999  0.8697579104730000  0.2658215912166000
  0.1156294119618000  0.1302420895270000  0.7341784087834000
  0.7059769010717000  0.5090234772699000  0.7533554938545000
  0.2940230989282999  0.4909765227301000  0.2466445061455000
  0.6109328911106002  0.5254638865652000  0.8691142884217999
  0.3877777410651000  0.2423550553257000  0.8444296503759000
  0.3890671088893999  0.4745361134348000  0.1308857115782000
  0.2547211849329000  0.4009044750663000  0.6241066406176000
  0.6943960347273000  0.4683700200541000  0.3436992271595000
  0.3056039652727000  0.5316299799459000  0.6563007728404999
  0.9117481848028901  0.4807867354808000  0.2171307996820000
  0.0882518151971100  0.5192132645192000  0.7828692003180000
  0.0833203439956300  0.4973250840870000  0.1419380634603000
  0.9166796560043701  0.5026749159130000  0.8580619365397000
  0.8139747684206998  0.7247912922418001  0.0795418216980900
  0.1860252315793000  0.2752087077582000  0.9204581783019100
  0.7452788150670999  0.5990955249337000  0.3758933593824000
  0.7195168331545000  0.1411549328041000  0.1310590767885000
  0.1785699966009001  0.9027025543538501  0.5064415723667000
  0.0890793411272100  0.5941552916165999  0.9361541791230898
  0.6445886497982002  0.5271970720459001  0.0121826236001100
  0.6845985063393001  0.2778983350102000  0.2769163972082000
  0.3154014936606999  0.7221016649898000  0.7230836027918000
  0.6981080602620998  0.2598631136784000  0.3793393175203000
  0.5557922549536001  0.3587825261537000  0.7760699856887000
  0.4442077450463999  0.6412174738463000  0.2239300143113000
  0.4218631565188000  0.3522277732276000  0.7209746941795000
  0.3018919397379000  0.7401368863216000  0.6206606824797001
  0.5781368434812000  0.6477722267724000  0.2790253058205000
  0.3063707223752999  0.0012700620829820  0.3826998800454000
  0.6007095827149000  0.6856462069558000  0.0123670235847500
  0.9109206588727901  0.4058447083834000  0.0638458208769100
  0.1897743572140000  0.6929411278198000  0.9279941890083000
  0.8102256427860000  0.3070588721802000  0.0720058109917000
  0.3992904172851000  0.3143537930442000  0.9876329764152501
  0.7249394028315000  0.7040211959234000  0.7156842300044000
  0.3395432179235000  0.3684488577471000  0.3545824528554000
  0.2750605971685000  0.2959788040766000  0.2843157699956000
  0.9252024669032801  0.2911694395480000  0.4569559761393000
  0.6936292776246999  0.9987299379170180  0.6173001199546000
  0.3163019181693000  0.8535961083463000  0.3380705385777000
  0.6836980818306999  0.1464038916537000  0.6619294614223000
  0.0747975330967200  0.7088305604520000  0.5430440238606999
  0.6141354304685999  0.8525020929950999  0.8619288535064998
  0.3858645695314001  0.1474979070049000  0.1380711464935000
  0.8204910615775002  0.7313007173599000  0.8378270312844001
  0.3554113502018000  0.4728029279541000  0.9878173763998900
  0.9724296782693402  0.6119331504540000  0.5748428917204000
  0.6604567820764998  0.6315511422529000  0.6454175471446000
  0.1795089384225000  0.2686992826401000  0.1621729687156000
  0.0275703217306600  0.3880668495460000  0.4251571082796000
  0.2103485678563000  0.0826143291051500  0.6672203785691000
  0.8745795916219000  0.1051107689254000  0.4242831235350000
  0.5751479706722998  0.6083078261618000  0.9884717763510301
  0.4248520293277000  0.3916921738382000  0.0115282236489700
  0.1254204083781000  0.8948892310745999  0.5757168764650000
  0.6684686720813999  0.4571960917925000  0.8048837556178000
  0.7341470450474000  0.5434769176122001  0.3215824147624000
  0.6325778733702000  0.3285441275075000  0.3466614645181000
  0.7896514321437000  0.9173856708948500  0.3327796214309000
  0.2658529549525999  0.4565230823878000  0.6784175852376000
  0.9484449020473400  0.3685642305570000  0.4821356923817000
  0.3315313279186000  0.5428039082075001  0.1951162443822000
  0.3674221266298001  0.6714558724924999  0.6533385354819000
  0.7845601613308000  0.1941482191486000  0.1508780932122000
  0.0115507895203200  0.4419281481951999  0.1490890148186000
  0.2154398386692000  0.8058517808514001  0.8491219067878000
  0.2346497225299000  0.9410305720606399  0.3910266950658001
  0.1470021441761000  0.0038409983541970  0.1120925882866000
  0.8529978558239001  0.9961590016458030  0.8879074117134002
  0.7653502774701000  0.0589694279393600  0.6089733049342000
  0.4231196207046000  0.0948633593206800  0.3696434200124000
  0.5768803792954003  0.9051366406793200  0.6303565799875999
  0.7465619827020999  0.8130121747832000  0.8158027803567001
  0.2534380172979001  0.1869878252168000  0.1841972196433000
  0.6243329373755999  0.0536101657521700  0.0782035314633200
  0.3756670626244002  0.9463898342478300  0.9217964685366800
  0.7526145872058999  0.6118516501159000  0.6764989436502001
  0.0860489114994800  0.7722614582977000  0.1588888270926000
  0.9139510885005198  0.2277385417023000  0.8411111729074000
  0.2473854127941001  0.3881483498841000  0.3235010563498000
  0.2285461481969000  0.2778706703290000  0.5560532425904000
  0.7714538518031000  0.7221293296710001  0.4439467574096000
  0.5062562938041001  0.2953570507034000  0.7533286445689000
  0.4937437061958999  0.7046429492966000  0.2466713554311000
  0.3185493645060000  0.2179760385111000  0.9047280343698401
  0.6814506354939999  0.7820239614889000  0.0952719656301600
  0.1514177742122001  0.6315362115911001  0.9706710690624700
  0.9884492104796804  0.5580718518048000  0.8509109851814000
  0.8485822257878000  0.3684637884089000  0.0293289309375300
  0.0515550979526600  0.6314357694430000  0.5178643076183000
