 H  O 
 1.0000000000000000
     6.1248440600000000    0.0000000000000000    0.0000000000000000
    -3.0624220299999987    5.3042705501782210    0.0000000000000000
     0.0000000000000004    0.0000000000000006    5.8649573899999998
  12   6
Direct
  0.3065687475937400  0.9361886302886402  0.7385701598579365
  0.6563054425754999  0.2329340314011000  0.0560262741818500
  0.3694601852332699  0.3061150883494000  0.9043597675263667
  0.9366549031161299  0.6305398147667300  0.5710264341930333
  0.6938849116506001  0.0633450968838700  0.2376931008597000
  0.7670659685989000  0.4233714111744000  0.3893596075151833
  0.6296198826949000  0.6934312524062600  0.4052368265246033
  0.5766285888256000  0.3436945574245000  0.7226929408485167
  0.2333409222705000  0.6557693227818000  0.7998121229002667
  0.4224284005113000  0.7666590777294999  0.4664787895669333
  0.3442306772182000  0.5775715994887000  0.1331454562336000
  0.0638113697113600  0.3703801173051000  0.0719034931912700
  0.7691679463488000  0.2374884062568000  0.1789819809872000
  0.7625115937431999  0.5316795400920000  0.5123153143205333
  0.4683204599079999  0.2308320536512000  0.8456486476538666
  0.2328134484485001  0.7642003933226001  0.6749563612129637
  0.5313869448741000  0.7671865515515000  0.3416230278796303
  0.2357996066774000  0.4686130551259000  0.0082896945462970
