 H  O 
 1.0000000000000000
     6.9160104799999997    0.0000000000000000    0.0000000000000000
    -0.0328024086541611    6.1058438984901278    0.0000000000000000
    -2.8231353903297904   -0.6324330890464270    7.2931458943269787
  24  12
Direct
  0.1736266927342000  0.6892194569141000  0.2282561665950000
  0.4621764711102000  0.8535916350202001  0.3099982584705000
  0.4270821838335001  0.7695646984213000  0.1056150274913000
  0.4657687710418000  0.0937205666047700  0.8496821363765000
  0.2576335539134000  0.0003174516253360  0.6814668368626999
  0.5052815429237000  0.8909365019609000  0.6059425447894000
  0.5160333095911001  0.6420830511454000  0.5367514656365000
  0.7794375281007000  0.7640771326212000  0.7399570453149000
  0.9352445687280200  0.8842907536166000  0.9189528454157602
  0.0199713779755500  0.5525913234627000  0.8235610586941999
  0.2333171740220000  0.4923504544578000  0.8123223904121000
  0.8328515828069000  0.1923685132106000  0.0640251691646300
  0.9715271311309401  0.5461760659146000  0.1829699623868000
  0.8990109138468000  0.3269215883250000  0.5453219580417000
  0.7369475932294001  0.2259248141008000  0.2163060713804000
  0.9305420679067200  0.9698562216740100  0.5256199747935000
  0.0912885357863200  0.2319652196052000  0.9365384915193300
  0.0467939242413100  0.7738612111069000  0.4707364861485001
  0.1933701168279000  0.0660460177178000  0.0906923033677700
  0.5853606498282000  0.4730537154669000  0.0112524511716800
  0.6297234490429000  0.6807199420141999  0.9300874503855100
  0.6609123037678000  0.2709023380892000  0.4629789862923000
  0.4075180400249000  0.2796100834495000  0.5845261121321000
  0.2940535988696000  0.3981305678238000  0.4041134436154000
  0.0928860048096600  0.6043204607375000  0.2825638375891000
  0.7055154474427000  0.2312880146237000  0.0842966485927900
  0.3631980908903999  0.8514396027383000  0.1836702223136000
  0.4290836150803000  0.3686319023936000  0.4934023845437000
  0.5234532798747000  0.6106192021406001  0.9641917001140400
  0.5732869942193000  0.7910564021750000  0.5420203517555000
  0.8599839929416000  0.7427722285756000  0.8691276830326000
  0.0419124511820600  0.8694952705528000  0.5743659747580000
  0.0962916930517600  0.4304725522769000  0.7908895700960999
  0.7928701131618000  0.2347150899107000  0.4503718740808000
  0.3984527060608000  0.0726735247373700  0.7177502514742000
  0.0642225300021400  0.1326864247889000  0.0189948651914100
