 H  O 
 1.0000000000000000
     4.5104587699999996    0.0000000000000000    0.0000000000000000
     0.0000000000000005    7.7939956199999996    0.0000000000000000
     0.0195979235091166    0.0000000000000003    4.4788541833230937
  12   6
Direct
  0.4211544182934000  0.0000000000000000  0.0009164265277957
  0.3775253239026999  0.6729186462379000  0.5818328618153999
  0.3775253239027000  0.3270813537621000  0.5818328618153999
  0.7058775151468000  0.6003113028661000  0.2553090398479000
  0.7058775151468000  0.3996886971339000  0.2553090398479000
  0.3767518234721000  0.1737347475611000  0.3481383942229000
  0.0701276205360200  0.0000000000000000  0.0182694378745100
  0.3767518234721000  0.8262652524389000  0.3481383942229000
  0.0301350911264100  0.5000000000000000  0.5279140571658000
  0.0425337835184400  0.5000000000000000  0.8817025286801000
  0.7026564958179999  0.8998213909124000  0.6772209990127001
  0.7026564958179999  0.1001786090876000  0.6772209990127001
  0.8276946600175000  0.5000000000000000  0.2021096165914000
  0.1653284668711000  0.5000000000000000  0.6996936468217000
  0.5057397502791999  0.2504065984504000  0.4638257740733999
  0.5057397502791999  0.7495934015496000  0.4638257740733999
  0.2513862348566000  0.0000000000000000  0.1392203331384000
  0.7528379075422000  0.0000000000000000  0.8005298152553000
