 H  O 
 1.0000000000000000
     9.4169142299999997    0.0000000000000000    0.0000000000000000
     1.3108209964852811    8.2311639990487553    0.0000000000000000
    -0.2341056472701116   -0.2937537535466138    8.1496667881245646
  48  24
Direct
  0.8310388075625000  0.7716587930006999  0.9916331693917730
  0.1480544859102000  0.2605034016945000  0.1414877531845000
  0.9502121225057300  0.6277901366592000  0.9285581501627800
  0.7174375891268000  0.4146048219975000  0.9743848798814500
  0.1745714268890000  0.9474230797715200  0.3734440565929000
  0.1899449067053000  0.1016774055692000  0.4835165642498000
  0.6211589788720000  0.7740553402997000  0.3078085453687000
  0.7521968900447000  0.8304391991818000  0.4061488517878000
  0.8002405374514000  0.2321535149546000  0.8089039321065000
  0.7943583198924999  0.0545032170595800  0.8542238351715000
  0.0229959487153300  0.8424104516655000  0.1111215825884000
  0.0703478416561500  0.0156748503606900  0.1060529191595000
  0.0575021926229700  0.3714054685783000  0.8846622281050001
  0.1335098816673000  0.4975446283466999  0.7929361281920000
  0.0676057000952500  0.5704978962093000  0.2387612433444000
  0.1078562311565000  0.4680294607167000  0.3930561300198000
  0.3678899352342000  0.3818044885392000  0.1828268493678000
  0.4020520552647001  0.2346199764342000  0.2918120330765000
  0.7648571382846001  0.6825722607322999  0.6472724768380000
  0.5965532154668001  0.7041409477630001  0.6616763616626999
  0.5508312585946000  0.3063061283043000  0.7930437789383000
  0.4851217301960000  0.2296994878667000  0.6331881405429001
  0.4560312554653000  0.6556372697737001  0.1787457114963000
  0.4725749705877000  0.6310946693213000  0.3701677932745000
  0.3753388614561001  0.8438503247644000  0.9819398599010999
  0.2488898198616000  0.8003717867019999  0.0766787135342400
  0.9787468176460700  0.2933996256888000  0.1348953433250000
  0.7051870015041000  0.4927483188180000  0.2227936370129000
  0.6933875188442999  0.5007102386650000  0.8024706516052000
  0.3983496063866000  0.1129267180570000  0.0415091344299800
  0.0616147815524600  0.3505148372968000  0.6116918938386999
  0.9748306580672600  0.6866965508545000  0.4561555689632000
  0.8296559143839000  0.5513412268653000  0.1295494227708000
  0.4313353289699999  0.1070123499426000  0.8584942802218000
  0.9575107064553400  0.8046381692885000  0.6093114063321000
  0.6097460255336999  0.9676163855850601  0.9793219055271800
  0.7090972447214000  0.9491715771924299  0.1325901881340000
  0.1366548999950000  0.9182984958720000  0.6594817569693000
  0.3624525906637999  0.6595123367033999  0.6198032058291000
  0.3625331492468999  0.8236608848797999  0.5322912896003000
  0.9833701901038799  0.2645916197061000  0.4719735734271000
  0.6264078565323000  0.2024135720703000  0.4196487627362000
  0.5630470930794000  0.0466456574293900  0.4126228288267000
  0.8337924349692000  0.1240636699161000  0.5709844752852000
  0.8805801769054000  0.0517481887209800  0.3993506574981000
  0.3122131663429000  0.6186092206270000  0.8652421400768000
  0.3558077987795000  0.4486501416662000  0.7649111879354999
  0.0112840721963900  0.9891280513669098  0.7723012503279000
  0.0730974298338100  0.8883953452521000  0.7407484301548000
  0.0756000732183000  0.3001083785584000  0.5009213350839000
  0.3406490521323000  0.7510860174778999  0.0288074530584700
  0.9011714746120197  0.7560742210987000  0.5216764560027001
  0.4639008992296000  0.2667988443016000  0.7468204355839000
  0.6874284268698000  0.6715577283554000  0.7205169643688000
  0.6892730892253001  0.3972261767023000  0.8589014399620000
  0.5201490943410000  0.6024471290241000  0.2644099990588000
  0.7935319117275000  0.4544251296199000  0.1644480806379000
  0.4278074744427000  0.0355799251002500  0.9511225040946600
  0.1104094678918000  0.5743847643377000  0.3467762521186000
  0.0418917233910200  0.4542348591386000  0.8024882143844000
  0.7117387557957000  0.9526301232467600  0.0135702153539100
  0.0873446570224900  0.9125728461614599  0.1611338582881000
  0.4217039769391000  0.7196216144966000  0.5547765690746000
  0.8401271860019999  0.1179659374688000  0.7794011063182000
  0.6680686813095000  0.8683084202176000  0.3355276931929000
  0.5352834610505000  0.1643375741693000  0.4338057870273000
  0.2231658868542000  0.9846438066104299  0.4711134503277000
  0.2906479191477000  0.5535586055649999  0.7670437615395000
  0.9139187328916100  0.6918249350610000  0.0259946485677200
  0.0632088881693500  0.2407510980876000  0.0776009319845000
  0.3433667210699000  0.2752227752455000  0.1960598162802000
  0.8395845493341000  0.1516869012252000  0.4549283489241000
