 H  O 
 1.0000000000000000
     6.5153480899999998    0.0000000000000000    0.0000000000000000
     0.0000000000000004    6.5153480899999998    0.0000000000000000
     0.0000000000000004    0.0000000000000004    6.8880810600000002
  24  12
Direct
  0.6170770372375001  0.6591143037515000  0.2882786302577000
  0.1955665097195000  0.1360117981482000  0.6071757564315001
  0.8044334902804999  0.8639882018517999  0.1071757564315000
  0.8639882018517999  0.8044334902804999  0.8928242435685000
  0.1360117981482000  0.1955665097195000  0.3928242435685000
  0.3044334902805000  0.6360117981482001  0.6428242435685000
  0.6955665097195001  0.3639882018517999  0.1428242435685000
  0.6591143037515000  0.6170770372375001  0.7117213697422999
  0.3408856962485000  0.3829229627625000  0.2117213697423000
  0.8829229627624999  0.1591143037515000  0.9617213697422999
  0.1170770372375000  0.8408856962485000  0.4617213697423000
  0.8408856962485000  0.1170770372375000  0.5382786302577001
  0.1591143037515000  0.8829229627624999  0.0382786302577000
  0.3639882018517999  0.6955665097195001  0.8571757564315000
  0.3829229627625000  0.3408856962485000  0.7882786302577001
  0.6360117981482001  0.3044334902805000  0.3571757564315000
  0.1589352476169000  0.5093542187734000  0.3005831562553999
  0.0093542187733999  0.3410647523830999  0.0505831562554000
  0.9906457812265999  0.6589352476169000  0.5505831562554000
  0.6589352476169000  0.9906457812265999  0.4494168437446000
  0.3410647523830999  0.0093542187733999  0.9494168437446001
  0.4906457812266000  0.8410647523831000  0.1994168437446000
  0.5093542187734000  0.1589352476169000  0.6994168437446000
  0.8410647523831000  0.4906457812266000  0.8005831562554000
  0.6152542399076000  0.8096137814348000  0.2747275189789000
  0.3096137814348000  0.8847457600924000  0.0247275189789000
  0.6903862185652000  0.1152542399076000  0.5247275189789000
  0.1152542399076000  0.6903862185652000  0.4752724810211000
  0.8847457600924000  0.3096137814348000  0.9752724810211000
  0.3985456028159000  0.6014543971841000  0.7500000000000000
  0.8985456028158999  0.8985456028158999  0.0000000000000000
  0.1014543971841000  0.1014543971841000  0.5000000000000000
  0.6014543971841000  0.3985456028159000  0.2500000000000000
  0.8096137814348000  0.6152542399076000  0.7252724810211000
  0.1903862185652000  0.3847457600924000  0.2252724810211000
  0.3847457600924000  0.1903862185652000  0.7747275189789000
