 H  O 
 1.0000000000000000
     7.6160846400000004    0.0000000000000000    0.0000000000000000
     0.0000000000000005    7.6160846400000004    0.0000000000000000
     0.0000000000000005    0.0000000000000005    7.6160846400000004
  24  12
Direct
  0.3974065272596000  0.0000000000000000  0.6662394309174999
  0.3337605690825000  0.3974065272596000  0.0000000000000000
  0.6662394309174999  0.3974065272596000  0.0000000000000000
  0.3337605690825000  0.6025934727404000  0.0000000000000000
  0.6662394309174999  0.6025934727404000  0.0000000000000000
  0.4999999999999999  0.8337605690825000  0.8974065272596000
  0.5000000000000000  0.1662394309175000  0.8974065272596000
  0.6025934727404000  0.0000000000000000  0.6662394309174999
  0.5000000000000000  0.8337605690825001  0.1025934727404000
  0.8974065272596000  0.4999999999999999  0.8337605690825001
  0.8974065272596000  0.5000000000000000  0.1662394309175000
  0.1025934727404000  0.5000000000000000  0.8337605690825001
  0.1025934727404000  0.4999999999999999  0.1662394309175000
  0.8337605690825000  0.8974065272596000  0.4999999999999999
  0.1662394309175000  0.8974065272596000  0.5000000000000000
  0.4999999999999999  0.1662394309175000  0.1025934727404000
  0.6025934727404000  0.0000000000000000  0.3337605690825000
  0.1662394309175000  0.1025934727404000  0.4999999999999999
  0.3974065272596000  0.0000000000000000  0.3337605690825000
  0.0000000000000000  0.6662394309174999  0.6025934727404000
  0.0000000000000000  0.3337605690825000  0.6025934727404000
  0.0000000000000000  0.6662394309174999  0.3974065272596000
  0.0000000000000000  0.3337605690825000  0.3974065272596000
  0.8337605690825001  0.1025934727404000  0.5000000000000000
  0.0000000000000000  0.7451270531101000  0.5000000000000000
  0.5000000000000000  0.0000000000000000  0.2548729468899000
  0.5000000000000000  0.0000000000000000  0.7451270531101000
  0.2548729468899000  0.5000000000000000  0.0000000000000000
  0.7451270531101000  0.5000000000000000  0.0000000000000000
  0.0000000000000000  0.5000000000000000  0.7548729468899000
  0.5000000000000000  0.2451270531101000  0.0000000000000000
  0.0000000000000000  0.5000000000000000  0.2451270531101000
  0.7548729468899000  0.0000000000000000  0.5000000000000000
  0.2451270531101000  0.0000000000000000  0.5000000000000000
  0.5000000000000000  0.7548729468899000  0.0000000000000000
  0.0000000000000000  0.2548729468899000  0.5000000000000000
