 H  O 
 1.0000000000000000
     6.1897900500000000    0.0000000000000000    0.0000000000000000
     1.8220980091169008    6.0959792370808996    0.0000000000000000
     2.8256486586781517   -2.5605874413629350    4.9225311895220889
  16   8
Direct
  0.3117964606037000  0.4553802456955000  0.0583939820994200
  0.2083359153130000  0.4328330150899000  0.7676040945395000
  0.9086642645231099  0.4721083010308000  0.9150729796797600
  0.9021435658663000  0.8699006755415000  0.4560616822900000
  0.7176348279738000  0.1651723907829000  0.6102390530383000
  0.1911914174204000  0.0855890844549500  0.6673175008287999
  0.2977040929651000  0.9365324816945400  0.7945940121893000
  0.8944828506404002  0.5200411394136000  0.3560267449035000
  0.4399989373163999  0.5948784393190001  0.9120141747772401
  0.0363498425901300  0.5039342880152999  0.5159241307570001
  0.6480408301659001  0.3708537294802000  0.2148879885931000
  0.5007314560914999  0.6645454428698000  0.3871616663483000
  0.1945579492694001  0.9808562297974299  0.1961065495785000
  0.4942286385600000  0.9590948656457901  0.0548578614205200
  0.7519736339504999  0.0219523496212200  0.2249714063935000
  0.8892562649854000  0.9833156939870800  0.9275406374166399
  0.2316013733641000  0.9290923829672399  0.6770254398450000
  0.6782878773015000  0.5153272510858000  0.2445678547602000
  0.8620038866610999  0.0200879821404000  0.4330242223808001
  0.3725403291163000  0.9058943548229300  0.0221250639427200
  0.0771372261239500  0.4030782722096001  0.7334650110965000
  0.0223251066199100  0.5599290232213001  0.3878322076152000
  0.4275597456552001  0.4405079741569999  0.8772872802273999
  0.7094735069230000  0.0514343869563300  0.0975984552787900
