 H  O 
 1.0000000000000000
     6.3128161599999997    0.0000000000000000    0.0000000000000000
     0.0000000000000004    7.2109559200000000    0.0000000000000000
    -1.5051630249764492    0.0000000000000006    8.8136863707469910
  32  16
Direct
  0.6539955318029000  0.4233854882780300  0.8934976053645000
  0.3460044681971001  0.9233854882780300  0.1065023946355000
  0.0019949862123630  0.1482171848081000  0.1605643596858000
  0.4838825214325000  0.0430563312992200  0.6601331160390000
  0.5161174785675001  0.5430563312992200  0.3398668839610000
  0.3821518197552000  0.2275618830941000  0.5888268038249000
  0.6178481802447999  0.7275618830941000  0.4111731961751000
  0.0375638791262700  0.7320280160516000  0.3410521267158000
  0.8423906624576000  0.3918707699249000  0.0229656903368200
  0.9624361208737300  0.2320280160516000  0.6589478732842000
  0.9222544923687400  0.2957495251814999  0.8181356216654000
  0.5656946092727999  0.0427722308332100  0.4427660832554000
  0.4343053907272001  0.5427722308332100  0.5572339167446000
  0.6903316188749999  0.0454729756971300  0.3019438030331000
  0.3096683811250000  0.5454729756971300  0.6980561969669000
  0.9253820074069700  0.2794416433726000  0.2809373394689000
  0.0746179925930300  0.7794416433726001  0.7190626605311000
  0.0777455076312600  0.7957495251815000  0.1818643783346000
  0.1576093375424000  0.8918707699249000  0.9770343096631799
  0.9980050137876368  0.6482171848081000  0.8394356403142000
  0.1696844398506000  0.9531863851083999  0.5343859191329000
  0.2627710122679000  0.2328156674471000  0.8621113894025000
  0.7372289877321000  0.7328156674471000  0.1378886105975000
  0.3827567853070000  0.3003930339683000  0.0192942986515300
  0.8303155601494000  0.4531863851084000  0.4656140808670999
  0.4265430042324000  0.5754139284385998  0.1167583343693000
  0.6172432146929999  0.8003930339683000  0.9807057013484699
  0.7774997144333999  0.0289341984973000  0.8130617604488000
  0.0801870603760200  0.4221298424827000  0.5085551199935000
  0.9198129396239801  0.9221298424827000  0.4914448800065001
  0.5734569957676000  0.0754139284386000  0.8832416656307001
  0.2225002855666000  0.5289341984972999  0.1869382395512000
  0.8842053438203000  0.2254287299437000  0.1796669982405000
  0.1157946561797000  0.7254287299437000  0.8203330017595000
  0.6389701192809000  0.9787452054688001  0.8281895162143000
  0.9435554589447500  0.3590893262066000  0.4731116107216000
  0.3361812010272000  0.4735986533992500  0.6117899702564000
  0.1930833602368000  0.9465118291026300  0.0787012689793300
  0.0564445410552500  0.8590893262065999  0.5268883892784000
  0.8069166397632000  0.4465118291026300  0.9212987310206699
  0.9863723694899000  0.1953566357683000  0.7655042502255001
  0.0136276305101000  0.6953566357683000  0.2344957497745000
  0.5944025206131001  0.7580566670635001  0.0800085941122100
  0.4055974793869000  0.2580566670635000  0.9199914058877900
  0.5976547834118000  0.5967738485642200  0.4337759618248000
  0.4023452165882000  0.0967738485642200  0.5662240381752000
  0.6638187989727999  0.9735986533992500  0.3882100297436000
  0.3610298807191000  0.4787452054688000  0.1718104837857000
