 H  O 
 1.0000000000000000
     8.5153442600000009    0.0000000000000000    0.0000000000000000
     0.0000000000000005    8.5644597699999991    0.0000000000000000
     0.0000000000000005    0.0000000000000005    8.4645322099999998
  32  16
Direct
  0.6745904775129000  0.0532759127191000  0.4229526556115000
  0.3254095224871000  0.9467240872809000  0.4229526556115000
  0.3138719932045000  0.1653202529795000  0.2005074940087000
  0.7684364785701000  0.2821092904476000  0.5212867887423001
  0.2315635214299000  0.7178907095524000  0.5212867887423001
  0.7315635214299000  0.7821092904476000  0.4787132112577001
  0.2684364785701000  0.2178907095524000  0.4787132112577001
  0.9421353521985600  0.3272098389001000  0.5738761102214001
  0.8254095224871000  0.5532759127191000  0.5770473443885000
  0.0578646478014400  0.6727901610999000  0.5738761102214001
  0.4421353521985600  0.1727901610999000  0.4261238897786000
  0.2381666828442000  0.7180704898484001  0.9730816251190101
  0.7618333171558000  0.2819295101516000  0.9730816251190101
  0.2618333171558000  0.2180704898484000  0.0269183748809900
  0.7381666828442000  0.7819295101515999  0.0269183748809900
  0.1861280067955000  0.6653202529794999  0.7994925059913001
  0.8138719932045000  0.3346797470205000  0.7994925059913001
  0.5578646478014400  0.8272098389001000  0.4261238897786000
  0.1745904775129000  0.4467240872809000  0.5770473443885000
  0.6861280067955000  0.8346797470205001  0.2005074940087000
  0.3333693546434000  0.8186729027321999  0.2937682246957000
  0.9652955348076498  0.6741061873570000  0.9293068953619300
  0.0347044651923500  0.3258938126430000  0.9293068953619300
  0.5347044651923500  0.1741061873570000  0.0706931046380700
  0.4652955348076500  0.8258938126430000  0.0706931046380700
  0.8295271431880999  0.5528549371536999  0.9301591347109300
  0.6666306453566000  0.1813270972678000  0.2937682246957000
  0.6704728568119001  0.0528549371537000  0.0698408652890700
  0.3295271431881000  0.9471450628463001  0.0698408652890700
  0.1704728568119000  0.4471450628463000  0.9301591347109300
  0.8333693546434000  0.6813270972678001  0.7062317753042999
  0.1666306453566000  0.3186729027322000  0.7062317753042999
  0.1567996638768000  0.3340422141843000  0.5917523294718000
  0.1494538584815000  0.3347552372128000  0.9172354055022700
  0.6494538584814999  0.1652447627872000  0.0827645944977300
  0.3505461415185000  0.8347552372128000  0.0827645944977300
  0.6567996638768000  0.1659577858157000  0.4082476705282000
  0.6670926591690002  0.8506981116318000  0.0874539888635700
  0.3329073408310000  0.1493018883682000  0.0874539888635700
  0.8329073408309999  0.3506981116318000  0.9125460111364300
  0.1670926591690000  0.6493018883682000  0.9125460111364300
  0.8310443603022000  0.3501328060122000  0.5912668210167000
  0.1689556396978000  0.6498671939878000  0.5912668210167000
  0.6689556396978001  0.8501328060122000  0.4087331789833000
  0.3310443603022000  0.1498671939878000  0.4087331789833000
  0.3432003361232000  0.8340422141843000  0.4082476705282000
  0.8432003361232000  0.6659577858157000  0.5917523294718000
  0.8505461415185001  0.6652447627872000  0.9172354055022700
