 H  O 
 1.0000000000000000
    12.7360912200000005    0.0000000000000000    0.0000000000000000
    -6.3680456099999976   11.0297785414359453    0.0000000000000000
     0.0000000000000004    0.0000000000000007    6.2393016799999996
  72  36
Direct
  0.1088356985596333  0.6544577696993666  0.4706155266885667
  0.7699795571145667  0.2258817102190333  0.8117030033831333
  0.4559021531044666  0.2300204428854333  0.8117030033831333
  0.5592150435523666  0.1225688197711333  0.8549636632835333
  0.5633537762187666  0.4407849564476333  0.8549636632835333
  0.8774311802288666  0.4366462237812332  0.8549636632835333
  0.1074516231143000  0.2107645135622000  0.4783696700498000
  0.1033128904479000  0.8925483768857000  0.4783696700498000
  0.7892354864377999  0.8966871095521000  0.4783696700498000
  0.7741182897809665  0.5440978468955333  0.8117030033831333
  0.8925483768857000  0.7892354864377999  0.5216303299502000
  0.2107645135622000  0.1033128904479000  0.5216303299502000
  0.5689756722461633  0.5998490423743966  0.2183423039345667
  0.5456220711397333  0.8911643014403666  0.4706155266885667
  0.3455422303006333  0.4543779288602666  0.4706155266885667
  0.5578309681070333  0.6788755636339666  0.8627178066447666
  0.1210445955269333  0.4421690318929666  0.8627178066447666
  0.3211244363660333  0.8789554044730666  0.8627178066447666
  0.4421690318929666  0.3211244363660333  0.1372821933552333
  0.8966871095521001  0.1074516231143000  0.5216303299502000
  0.5440978468955333  0.7699795571145667  0.1882969966168666
  0.2300204428854332  0.7741182897809665  0.1882969966168666
  0.2258817102190333  0.4559021531044667  0.1882969966168666
  0.0308733701282334  0.4310243277538366  0.2183423039345667
  0.2665157090410634  0.3642067034615666  0.1149910293987666
  0.0976909944205033  0.7334842909589366  0.1149910293987666
  0.6357932965384333  0.9023090055794967  0.1149910293987666
  0.7334842909589366  0.6357932965384333  0.8850089706012334
  0.9023090055794967  0.2665157090410634  0.8850089706012334
  0.3642067034615666  0.0976909944205033  0.8850089706012334
  0.5998490423743966  0.0308733701282333  0.7816576960654333
  0.4310243277538366  0.4001509576256033  0.7816576960654333
  0.9691266298717667  0.5689756722461633  0.7816576960654333
  0.0668176242922700  0.3024599632051000  0.5516756372679000
  0.2356423389128300  0.9331823757077300  0.5516756372679000
  0.6975400367949000  0.7643576610871698  0.5516756372679000
  0.9331823757077300  0.6975400367949001  0.4483243627321000
  0.7643576610871700  0.0668176242922700  0.4483243627321000
  0.3024599632050999  0.2356423389128300  0.4483243627321000
  0.4407849564476333  0.8774311802288666  0.1450363367164667
  0.4366462237812333  0.5592150435523666  0.1450363367164667
  0.1225688197711333  0.5633537762187666  0.1450363367164667
  0.8789554044730666  0.5578309681070333  0.1372821933552333
  0.6788755636339666  0.1210445955269333  0.1372821933552333
  0.4001509576256033  0.9691266298717668  0.2183423039345667
  0.4543779288602667  0.1088356985596333  0.5293844733114333
  0.4854794852495933  0.6212463807276265  0.6567434097837316
  0.1357668954780332  0.5145205147504065  0.6567434097837316
  0.8911643014403666  0.3455422303006333  0.5293844733114333
  0.5145205147504066  0.3787536192723733  0.3432565902162683
  0.8642331045219667  0.4854794852495933  0.3432565902162683
  0.6212463807276266  0.1357668954780333  0.3432565902162683
  0.8188128185829265  0.2879130473942932  0.3234100764503983
  0.4691002288113666  0.1811871814170733  0.3234100764503983
  0.7120869526057066  0.5308997711886333  0.3234100764503983
  0.8478538480837400  0.0454202859390400  0.0099232568829350
  0.1975664378553000  0.1521461519162600  0.0099232568829350
  0.9545797140609601  0.8024335621447000  0.0099232568829350
  0.1521461519162600  0.9545797140609600  0.9900767431170650
  0.8024335621447000  0.8478538480837400  0.9900767431170650
  0.0454202859390400  0.1975664378553000  0.9900767431170650
  0.2879130473942933  0.4691002288113666  0.6765899235496018
  0.5308997711886332  0.8188128185829265  0.6765899235496018
  0.3787536192723734  0.8642331045219668  0.6567434097837316
  0.0122088969673000  0.7877112621936000  0.8039488600219000
  0.2122887378064000  0.2244976347737000  0.8039488600219000
  0.2244976347737000  0.0122088969673000  0.1960511399781000
  0.7877112621936000  0.7755023652263000  0.1960511399781000
  0.9877911030326999  0.2122887378064000  0.1960511399781000
  0.1811871814170733  0.7120869526057066  0.6765899235496018
  0.7755023652262999  0.9877911030327000  0.8039488600219000
  0.6544577696993666  0.5456220711397333  0.5293844733114333
  0.8876794065670466  0.3635443564395133  0.3781322837202333
  0.8091982832058001  0.7789872600996200  0.0447989503869000
  0.1123205934329533  0.6364556435604867  0.6218677162797667
  0.2210127399003800  0.0302110231061800  0.0447989503869000
  0.0302110231061799  0.8091982832057999  0.9552010496131000
  0.1908017167941999  0.2210127399003800  0.9552010496131000
  0.7789872600996199  0.9697889768938200  0.9552010496131000
  0.4758649498724666  0.1123205934329533  0.3781322837202333
  0.5241350501275334  0.8876794065670467  0.6218677162797667
  0.5543460732337133  0.6968776897728466  0.7114656170535665
  0.1425316165391333  0.4456539267662866  0.7114656170535665
  0.6364556435604867  0.5241350501275333  0.3781322837202333
  0.4456539267662866  0.3031223102271533  0.2885343829464333
  0.8574683834608667  0.5543460732337133  0.2885343829464333
  0.6968776897728466  0.1425316165391333  0.2885343829464333
  0.3635443564395133  0.4758649498724666  0.6218677162797667
  0.3031223102271533  0.8574683834608666  0.7114656170535665
  0.8541271523479667  0.2932667506123333  0.8046316897704333
  0.2275270684023000  0.1874604856813000  0.5287016435628999
  0.7067332493876666  0.5608604017356333  0.8046316897704333
  0.5608604017356332  0.8541271523479665  0.1953683102295666
  0.1458728476520333  0.7067332493876666  0.1953683102295666
  0.2932667506123333  0.4391395982643667  0.1953683102295666
  0.1058062649310333  0.4792061809853665  0.1379650231037666
  0.5207938190146333  0.6266000839456667  0.1379650231037666
  0.3733999160543333  0.8941937350689666  0.1379650231037666
  0.6266000839456667  0.1058062649310333  0.8620349768962334
  0.4792061809853667  0.3733999160543333  0.8620349768962334
  0.8941937350689666  0.5207938190146333  0.8620349768962334
  0.0400665827210000  0.2275270684023000  0.4712983564371000
  0.1874604856813000  0.9599334172789999  0.4712983564371000
  0.7724729315977000  0.8125395143186999  0.4712983564371000
  0.9599334172789999  0.7724729315977000  0.5287016435628999
  0.8125395143187000  0.0400665827210000  0.5287016435628999
  0.4391395982643666  0.1458728476520333  0.8046316897704333
  0.9697889768938200  0.1908017167942000  0.0447989503869000
