 H  O 
 1.0000000000000000
    10.0850529299999998    0.0000000000000000    0.0000000000000000
     0.0000000000000005    7.4444308399999999    0.0000000000000000
    -2.9034469879207232    0.0000000000000007    8.5530877413055233
  56  28
Direct
  0.0164879043770900  0.1412414630806000  0.6798370867121000
  0.9835120956229099  0.6412414630806000  0.8201629132879000
  0.2486301902838000  0.7043442041186000  0.4593180403679000
  0.0164879043770900  0.3587585369194000  0.1798370867121000
  0.9835120956229099  0.8587585369194000  0.3201629132879000
  0.9228822037219501  0.5104550364261999  0.6815535292278000
  0.0771177962780500  0.0104550364262000  0.8184464707722000
  0.0771177962780500  0.4895449635738000  0.3184464707722000
  0.9228822037219501  0.9895449635738001  0.1815535292278000
  0.5974762773022000  0.0436889040635200  0.7354792662928999
  0.4025237226978000  0.5436889040635200  0.7645207337071001
  0.4025237226978000  0.9563110959364800  0.2645207337071000
  0.5974762773022000  0.4563110959364800  0.2354792662929000
  0.4869467090483000  0.1326722194034000  0.8042407036151999
  0.5130532909517000  0.6326722194034000  0.6957592963848001
  0.5473207164888001  0.7499989024824000  0.9508176849417002
  0.5130532909517000  0.8673277805966000  0.1957592963848000
  0.7486110744656000  0.3595583165019000  0.8131578336404000
  0.2513889255344000  0.8595583165019001  0.6868421663596000
  0.2513889255344000  0.6404416834980999  0.1868421663596000
  0.7486110744656000  0.1404416834981000  0.3131578336404000
  0.6399770786369000  0.4459836597098000  0.8782305146689000
  0.3600229213631000  0.9459836597098000  0.6217694853311000
  0.3600229213631000  0.5540163402902001  0.1217694853311000
  0.6399770786369000  0.0540163402902000  0.3782305146689000
  0.6972399908697999  0.4874397337343000  0.5725304806874000
  0.3027600091302000  0.9874397337342999  0.9274695193126000
  0.3027600091302000  0.5125602662657001  0.4274695193126000
  0.6972399908697999  0.0125602662657000  0.0725304806874000
  0.7513698097162000  0.2956557958814000  0.5406819596321000
  0.2486301902838000  0.7956557958814000  0.9593180403679000
  0.4869467090483000  0.3673277805966000  0.3042407036152000
  0.4526792835112000  0.2499989024824000  0.5491823150583000
  0.7513698097162000  0.2043442041186000  0.0406819596321000
  0.5473207164888000  0.7500010975176000  0.4508176849417000
  0.2034049482581000  0.3506666583304000  0.6552260246996999
  0.7965950517418999  0.8506666583304000  0.8447739753003001
  0.7965950517418999  0.6493333416696000  0.3447739753003000
  0.2034049482581000  0.1493333416696000  0.1552260246997000
  0.1655715126704000  0.5059702817692000  0.7480261649574000
  0.8344284873296000  0.0059702817692000  0.7519738350426000
  0.8344284873296000  0.4940297182308000  0.2519738350426000
  0.1655715126704000  0.9940297182308000  0.2480261649574000
  0.4526792835112000  0.2500010975176000  0.0491823150583000
  0.8504899312106001  0.5838741420753900  0.9741197142714999
  0.8504899312106001  0.9161258579246100  0.4741197142715001
  0.1495100687894000  0.4161258579246100  0.0258802857285000
  0.0555585586186400  0.2456898545790000  0.4304772604027000
  0.9444414413813601  0.7456898545790001  0.0695227395972999
  0.9444414413813601  0.7543101454209999  0.5695227395973000
  0.1495100687894000  0.0838741420753900  0.5258802857285000
  0.6599725521333000  0.7820816479024001  0.6125572971898000
  0.0555585586186400  0.2543101454210000  0.9304772604027000
  0.6599725521332999  0.7179183520976000  0.1125572971898000
  0.3400274478667000  0.2179183520976000  0.3874427028102000
  0.3400274478667000  0.2820816479024000  0.8874427028102000
  0.7544618444033000  0.9355539842602000  0.7590603954167000
  0.7544618444033000  0.5644460157398000  0.2590603954167000
  0.2455381555967000  0.0644460157398000  0.2409396045833000
  0.9983198495492490  0.5987751763038001  0.7241570721534001
  0.0016801504507510  0.0987751763038000  0.7758429278465999
  0.7656370020140000  0.1071347950846000  0.1176484585370000
  0.2343629979860000  0.6071347950846000  0.3823515414630000
  0.2343629979860000  0.8928652049154000  0.8823515414630000
  0.7656370020140000  0.3928652049154000  0.6176484585370000
  0.0016801504507510  0.4012248236962000  0.2758429278466000
  0.9983198495492490  0.9012248236961999  0.2241570721534000
  0.5030128611994000  0.4046300859536400  0.2076050501474000
  0.0976757624162300  0.1919625117392000  0.5343061774436000
  0.9023242375837700  0.6919625117392000  0.9656938225564001
  0.9023242375837700  0.8080374882608000  0.4656938225564000
  0.7315818407496000  0.1136567265193000  0.4115109681995100
  0.2684181592504000  0.6136567265193000  0.0884890318004900
  0.2684181592504000  0.8863432734807000  0.5884890318004901
  0.7315818407496000  0.3863432734807001  0.9115109681995099
  0.0976757624162300  0.3080374882608000  0.0343061774436000
  0.5954280747337000  0.8088303436116000  0.0507435331588000
  0.4045719252662999  0.3088303436116000  0.4492564668412000
  0.4045719252662999  0.1911696563884000  0.9492564668412000
  0.5954280747337000  0.6911696563884000  0.5507435331588000
  0.5030128611994000  0.0953699140463600  0.7076050501474000
  0.4969871388006000  0.5953699140463600  0.7923949498526000
  0.4969871388006000  0.9046300859536400  0.2923949498526000
  0.2455381555967000  0.4355539842602000  0.7409396045833000
