 H  O 
 1.0000000000000000
     7.5067817799999998    0.0000000000000000    0.0000000000000000
     0.0675677570753202    7.4751571946124029    0.0000000000000000
    -0.0452655166019512   -0.2387023569245367    7.4899315706035567
  32  16
Direct
  0.9784928809902500  0.7074371515177000  0.3718603453996000
  0.9845960881087100  0.5190941553285999  0.4545914867182000
  0.7152351282531000  0.8908685775575002  0.0226748192806800
  0.2986655568832000  0.3914852210325000  0.4389029879547000
  0.3934026971312000  0.4800922785713000  0.2712833463694000
  0.0450692074144100  0.7107120659039000  0.8717411297588000
  0.2218083183579000  0.6183928982785001  0.9497849045387400
  0.7248023721721000  0.6187916599375001  0.5233514486412000
  0.6293717150875999  0.4731988640856000  0.7734504524682000
  0.5380953334795000  0.5308967832172999  0.5129465604437999
  0.1321459204789000  0.9697144659406599  0.2837259187874000
  0.4755240904866000  0.2177448320857000  0.8691111385247000
  0.3963069446437000  0.0414469289304200  0.7731327383410999
  0.8963624161718000  0.4709489960622000  0.1864284970479000
  0.9897013581495301  0.4734025114667000  0.0004221930756576
  0.8068216139447000  0.1152200817092000  0.5324925120399000
  0.9902475984205970  0.0164461822048300  0.5232150752705000
  0.2317837304320000  0.8884072016825000  0.4525858986637000
  0.7236810106325999  0.3899994243993000  0.9456239553845001
  0.5285929025027000  0.9849180080894400  0.0137925295244200
  0.6280902697537001  0.0438083419654100  0.2757212326936000
  0.8982895307974000  0.9631671598926300  0.7884146446470000
  0.5498046780396000  0.2221229554735000  0.3701525772902000
  0.0455088869497100  0.2161795672184000  0.1049866775560000
  0.2209297537899000  0.1217878012173000  0.0258278369596300
  0.1262435455270000  0.4615796725570000  0.6886928353045000
  0.0459270891351100  0.2829377218352000  0.5982393646467000
  0.4869713801653000  0.8011608723129001  0.6000065698804999
  0.9873682255682400  0.9716320691197300  0.9765580942797500
  0.4735509530723000  0.7175353538315000  0.1012056541492000
  0.4953429906194000  0.9874725298633701  0.5105385394601001
  0.4822849340515000  0.5284182136904000  0.0078517680463980
  0.4176384080431000  0.9120655490187300  0.5833187634537000
  0.9163141236152200  0.0957056409083000  0.6019057888941001
  0.6044011082690000  0.9097410546270100  0.0904571827275600
  0.9129087846891100  0.3990334103285000  0.0750728134631800
  0.9123576218018800  0.8944197137006999  0.8976467528519000
  0.1174661642952000  0.8934582857076000  0.3870370023791000
  0.6104943960344000  0.3995769579214000  0.8787507820765000
  0.4050491645362000  0.6065231635521000  0.0845096969529200
  0.6148079227059999  0.6054939620346000  0.5926982497065001
  0.1156996966287000  0.3912342492441000  0.5758055691190000
  0.1143631733031000  0.5977319605417000  0.8755734700041999
  0.4121933882000000  0.4057688877173000  0.3762898489385000
  0.6218991792909000  0.1137874206247000  0.3896836554964000
  0.9076108896723500  0.5987189845320999  0.3837841084564000
  0.4014655526367000  0.1117296945508000  0.8869211291597000
  0.1170013050678000  0.1045205180122000  0.1025914531741000
