 H  O 
 1.0000000000000000
    25.5188518616659756    0.0000000000000000    0.0000000000000000
     0.0000000000000000   24.0000000000000000    0.0000000000000000
     0.0000000000000000    0.0000000000000000   24.5828989643380815
   2   1
Direct
  0.5297594082582449  0.5000000000000000  0.5118557816387661
  0.4702405917417553  0.5000000000000000  0.5118557816387661
  0.5000000000000001  0.5000000000000000  0.4881442183612340
